memory 4 GB
molecule mol {
0 1
6       -1.0617092040   1.2971405720    0.2920600030
8       -0.3581611160   2.2704586130    0.5318126680
8       -0.5893035160   0.0949177580    0.0037888130
6       -2.5584277980   1.3425498230    0.2962573200
1       0.4044356590    0.1277226210    0.0184118380
1       -2.8959979780   2.3474640020    0.5183163400
1       -2.9328892780   1.0223904510    -0.6729955510
1       -2.9372119600   0.6449104330    1.0395570840
--
0 1
6       2.2924117880    1.1062202300    0.2673807780
8       1.5887934230    0.1329057420    0.0275931760
8       1.8199854540    2.3086556180    0.5551592490
6       3.7891242360    1.0603174840    0.2654163830
1       0.8261969140    2.2757573840    0.5407587450
1       4.1267038000    0.0589982910    0.0278908880
1       4.1706227810    1.7706704230    -0.4640525150
1       4.1606405470    1.3630120010    1.2414717440
}

set {
basis jun-cc-pvdz
freeze_core true
guess sad
scf_type df
}

set dft_dispersion_parameters [1.0, 1.61679827, 16.0, 0.44959224, 3.35743605, 0.0]
energy('hf-d4', bsse_type="cp")
