11

N       -2.2759069320   0.1021666160    3.0747211410 
C       -1.6610210010   1.2598344260    3.3547853310 
H       -2.3086250580   2.1130058790    3.5172974240 
C       -0.2788061030   1.4006821620    3.4449561470 
H       0.1530426550    2.3643322770    3.6761724440 
C       0.5221452880    0.2837028580    3.2307422360 
H       1.5997144560    0.3540871360    3.2855767460 
C       -0.0984066150   -0.9249521800   2.9370826590 
H       0.4773678950    -1.8205740630   2.7530077220 
C       -1.4889208920   -0.9629900630   2.8716332410 
H       -1.9977738170   -1.8914434410   2.6427905670 
