11

N       -2.8566166670   0.3864157190    5.1870781090 
C       -2.2417307360   1.5440835290    5.4671422990 
H       -2.8893347930   2.3972549820    5.6296543920 
C       -0.8595158380   1.6849312650    5.5573131150 
H       -0.4276670800   2.6485813800    5.7885294120 
C       -0.0585644470   0.5679519610    5.3430992040 
H       1.0190047210    0.6383362390    5.3979337140 
C       -0.6791163500   -0.6407030770   5.0494396270 
H       -0.1033418400   -1.5363249600   4.8653646900 
C       -2.0696306270   -0.6787409600   4.9839902090 
H       -2.5784835520   -1.6071943380   4.7551475350 
