24
S66x8 system 24: Benzene-Benzene (pi-pi), 1.00 equilibrium geometry
C   0.69482084  1.13372372 -0.00737754
H   1.32784147  2.01063751 -0.00248932
C   1.26699954 -0.13646146 -0.00653552
H   2.34278659 -0.24504346  0.00505427
C   0.45185505 -1.26658331 -0.00786052
H   0.89632906 -2.25268591 -0.00456818
C  -0.93474529 -1.12703861 -0.00777978
H  -1.56704443 -2.00475456 -0.00892838
C  -1.50704217  0.14400910 -0.00613340
H  -2.58330053  0.25285265 -0.00726597
C  -0.69191164  1.27446570 -0.00826275
H  -1.13564092  2.26102022 -0.00900188
C   2.28919850  1.13443083  3.38696054
H   2.92150145  2.01212918  3.38846139
C   2.86153071 -0.13664416  3.38559926
H   3.93779903 -0.24546696  3.38732112
C   2.04639659 -1.26710604  3.38722042
H   2.49015172 -2.25365606  3.38812676
C   0.65965564 -1.12637246  3.38555740
H   0.02668348 -2.00328993  3.38022558
C   0.08747949  0.14379929  3.38444052
H  -0.98828603  0.25236630  3.37217564
C   0.90260063  1.27392424  3.38625840
H   0.45813354  2.26002735  3.38269450
