6
Water dimer with O-O distance = 2.00 Angstrom
O 0.000000 0.000000 0.000000
H -0.960000 0.000000 0.000000
H 0.240365 -0.929422 0.000000
O 2.960000 0.000000 0.000000
H 2.000000 0.000000 0.000000
H 3.200365 -0.929422 0.000000
6
Water dimer with O-O distance = 2.24 Angstrom
O 0.000000 0.000000 0.000000
H -0.960000 0.000000 0.000000
H 0.240365 -0.929422 0.000000
O 3.204898 0.000000 0.000000
H 2.244898 0.000000 0.000000
H 3.445263 -0.929422 0.000000
6
Water dimer with O-O distance = 2.49 Angstrom
O 0.000000 0.000000 0.000000
H -0.960000 0.000000 0.000000
H 0.240365 -0.929422 0.000000
O 3.449796 0.000000 0.000000
H 2.489796 0.000000 0.000000
H 3.690161 -0.929422 0.000000
6
Water dimer with O-O distance = 2.73 Angstrom
O 0.000000 0.000000 0.000000
H -0.960000 0.000000 0.000000
H 0.240365 -0.929422 0.000000
O 3.694694 0.000000 0.000000
H 2.734694 0.000000 0.000000
H 3.935059 -0.929422 0.000000
6
Water dimer with O-O distance = 2.98 Angstrom
O 0.000000 0.000000 0.000000
H -0.960000 0.000000 0.000000
H 0.240365 -0.929422 0.000000
O 3.939592 0.000000 0.000000
H 2.979592 0.000000 0.000000
H 4.179957 -0.929422 0.000000
6
Water dimer with O-O distance = 3.22 Angstrom
O 0.000000 0.000000 0.000000
H -0.960000 0.000000 0.000000
H 0.240365 -0.929422 0.000000
O 4.184490 0.000000 0.000000
H 3.224490 0.000000 0.000000
H 4.424855 -0.929422 0.000000
6
Water dimer with O-O distance = 3.47 Angstrom
O 0.000000 0.000000 0.000000
H -0.960000 0.000000 0.000000
H 0.240365 -0.929422 0.000000
O 4.429388 0.000000 0.000000
H 3.469388 0.000000 0.000000
H 4.669753 -0.929422 0.000000
6
Water dimer with O-O distance = 3.71 Angstrom
O 0.000000 0.000000 0.000000
H -0.960000 0.000000 0.000000
H 0.240365 -0.929422 0.000000
O 4.674286 0.000000 0.000000
H 3.714286 0.000000 0.000000
H 4.914651 -0.929422 0.000000
6
Water dimer with O-O distance = 3.96 Angstrom
O 0.000000 0.000000 0.000000
H -0.960000 0.000000 0.000000
H 0.240365 -0.929422 0.000000
O 4.919184 0.000000 0.000000
H 3.959184 0.000000 0.000000
H 5.159548 -0.929422 0.000000
6
Water dimer with O-O distance = 4.20 Angstrom
O 0.000000 0.000000 0.000000
H -0.960000 0.000000 0.000000
H 0.240365 -0.929422 0.000000
O 5.164082 0.000000 0.000000
H 4.204082 0.000000 0.000000
H 5.404446 -0.929422 0.000000
6
Water dimer with O-O distance = 4.45 Angstrom
O 0.000000 0.000000 0.000000
H -0.960000 0.000000 0.000000
H 0.240365 -0.929422 0.000000
O 5.408980 0.000000 0.000000
H 4.448980 0.000000 0.000000
H 5.649344 -0.929422 0.000000
6
Water dimer with O-O distance = 4.69 Angstrom
O 0.000000 0.000000 0.000000
H -0.960000 0.000000 0.000000
H 0.240365 -0.929422 0.000000
O 5.653878 0.000000 0.000000
H 4.693878 0.000000 0.000000
H 5.894242 -0.929422 0.000000
6
Water dimer with O-O distance = 4.94 Angstrom
O 0.000000 0.000000 0.000000
H -0.960000 0.000000 0.000000
H 0.240365 -0.929422 0.000000
O 5.898776 0.000000 0.000000
H 4.938776 0.000000 0.000000
H 6.139140 -0.929422 0.000000
6
Water dimer with O-O distance = 5.18 Angstrom
O 0.000000 0.000000 0.000000
H -0.960000 0.000000 0.000000
H 0.240365 -0.929422 0.000000
O 6.143673 0.000000 0.000000
H 5.183673 0.000000 0.000000
H 6.384038 -0.929422 0.000000
6
Water dimer with O-O distance = 5.43 Angstrom
O 0.000000 0.000000 0.000000
H -0.960000 0.000000 0.000000
H 0.240365 -0.929422 0.000000
O 6.388571 0.000000 0.000000
H 5.428571 0.000000 0.000000
H 6.628936 -0.929422 0.000000
6
Water dimer with O-O distance = 5.67 Angstrom
O 0.000000 0.000000 0.000000
H -0.960000 0.000000 0.000000
H 0.240365 -0.929422 0.000000
O 6.633469 0.000000 0.000000
H 5.673469 0.000000 0.000000
H 6.873834 -0.929422 0.000000
6
Water dimer with O-O distance = 5.92 Angstrom
O 0.000000 0.000000 0.000000
H -0.960000 0.000000 0.000000
H 0.240365 -0.929422 0.000000
O 6.878367 0.000000 0.000000
H 5.918367 0.000000 0.000000
H 7.118732 -0.929422 0.000000
6
Water dimer with O-O distance = 6.16 Angstrom
O 0.000000 0.000000 0.000000
H -0.960000 0.000000 0.000000
H 0.240365 -0.929422 0.000000
O 7.123265 0.000000 0.000000
H 6.163265 0.000000 0.000000
H 7.363630 -0.929422 0.000000
6
Water dimer with O-O distance = 6.41 Angstrom
O 0.000000 0.000000 0.000000
H -0.960000 0.000000 0.000000
H 0.240365 -0.929422 0.000000
O 7.368163 0.000000 0.000000
H 6.408163 0.000000 0.000000
H 7.608528 -0.929422 0.000000
6
Water dimer with O-O distance = 6.65 Angstrom
O 0.000000 0.000000 0.000000
H -0.960000 0.000000 0.000000
H 0.240365 -0.929422 0.000000
O 7.613061 0.000000 0.000000
H 6.653061 0.000000 0.000000
H 7.853426 -0.929422 0.000000
6
Water dimer with O-O distance = 6.90 Angstrom
O 0.000000 0.000000 0.000000
H -0.960000 0.000000 0.000000
H 0.240365 -0.929422 0.000000
O 7.857959 0.000000 0.000000
H 6.897959 0.000000 0.000000
H 8.098324 -0.929422 0.000000
6
Water dimer with O-O distance = 7.14 Angstrom
O 0.000000 0.000000 0.000000
H -0.960000 0.000000 0.000000
H 0.240365 -0.929422 0.000000
O 8.102857 0.000000 0.000000
H 7.142857 0.000000 0.000000
H 8.343222 -0.929422 0.000000
6
Water dimer with O-O distance = 7.39 Angstrom
O 0.000000 0.000000 0.000000
H -0.960000 0.000000 0.000000
H 0.240365 -0.929422 0.000000
O 8.347755 0.000000 0.000000
H 7.387755 0.000000 0.000000
H 8.588120 -0.929422 0.000000
6
Water dimer with O-O distance = 7.63 Angstrom
O 0.000000 0.000000 0.000000
H -0.960000 0.000000 0.000000
H 0.240365 -0.929422 0.000000
O 8.592653 0.000000 0.000000
H 7.632653 0.000000 0.000000
H 8.833018 -0.929422 0.000000
6
Water dimer with O-O distance = 7.88 Angstrom
O 0.000000 0.000000 0.000000
H -0.960000 0.000000 0.000000
H 0.240365 -0.929422 0.000000
O 8.837551 0.000000 0.000000
H 7.877551 0.000000 0.000000
H 9.077916 -0.929422 0.000000
6
Water dimer with O-O distance = 8.12 Angstrom
O 0.000000 0.000000 0.000000
H -0.960000 0.000000 0.000000
H 0.240365 -0.929422 0.000000
O 9.082449 0.000000 0.000000
H 8.122449 0.000000 0.000000
H 9.322814 -0.929422 0.000000
6
Water dimer with O-O distance = 8.37 Angstrom
O 0.000000 0.000000 0.000000
H -0.960000 0.000000 0.000000
H 0.240365 -0.929422 0.000000
O 9.327347 0.000000 0.000000
H 8.367347 0.000000 0.000000
H 9.567712 -0.929422 0.000000
6
Water dimer with O-O distance = 8.61 Angstrom
O 0.000000 0.000000 0.000000
H -0.960000 0.000000 0.000000
H 0.240365 -0.929422 0.000000
O 9.572245 0.000000 0.000000
H 8.612245 0.000000 0.000000
H 9.812610 -0.929422 0.000000
6
Water dimer with O-O distance = 8.86 Angstrom
O 0.000000 0.000000 0.000000
H -0.960000 0.000000 0.000000
H 0.240365 -0.929422 0.000000
O 9.817143 0.000000 0.000000
H 8.857143 0.000000 0.000000
H 10.057508 -0.929422 0.000000
6
Water dimer with O-O distance = 9.10 Angstrom
O 0.000000 0.000000 0.000000
H -0.960000 0.000000 0.000000
H 0.240365 -0.929422 0.000000
O 10.062041 0.000000 0.000000
H 9.102041 0.000000 0.000000
H 10.302406 -0.929422 0.000000
6
Water dimer with O-O distance = 9.35 Angstrom
O 0.000000 0.000000 0.000000
H -0.960000 0.000000 0.000000
H 0.240365 -0.929422 0.000000
O 10.306939 0.000000 0.000000
H 9.346939 0.000000 0.000000
H 10.547304 -0.929422 0.000000
6
Water dimer with O-O distance = 9.59 Angstrom
O 0.000000 0.000000 0.000000
H -0.960000 0.000000 0.000000
H 0.240365 -0.929422 0.000000
O 10.551837 0.000000 0.000000
H 9.591837 0.000000 0.000000
H 10.792202 -0.929422 0.000000
6
Water dimer with O-O distance = 9.84 Angstrom
O 0.000000 0.000000 0.000000
H -0.960000 0.000000 0.000000
H 0.240365 -0.929422 0.000000
O 10.796735 0.000000 0.000000
H 9.836735 0.000000 0.000000
H 11.037099 -0.929422 0.000000
6
Water dimer with O-O distance = 10.08 Angstrom
O 0.000000 0.000000 0.000000
H -0.960000 0.000000 0.000000
H 0.240365 -0.929422 0.000000
O 11.041633 0.000000 0.000000
H 10.081633 0.000000 0.000000
H 11.281997 -0.929422 0.000000
6
Water dimer with O-O distance = 10.33 Angstrom
O 0.000000 0.000000 0.000000
H -0.960000 0.000000 0.000000
H 0.240365 -0.929422 0.000000
O 11.286531 0.000000 0.000000
H 10.326531 0.000000 0.000000
H 11.526895 -0.929422 0.000000
6
Water dimer with O-O distance = 10.57 Angstrom
O 0.000000 0.000000 0.000000
H -0.960000 0.000000 0.000000
H 0.240365 -0.929422 0.000000
O 11.531429 0.000000 0.000000
H 10.571429 0.000000 0.000000
H 11.771793 -0.929422 0.000000
6
Water dimer with O-O distance = 10.82 Angstrom
O 0.000000 0.000000 0.000000
H -0.960000 0.000000 0.000000
H 0.240365 -0.929422 0.000000
O 11.776327 0.000000 0.000000
H 10.816327 0.000000 0.000000
H 12.016691 -0.929422 0.000000
6
Water dimer with O-O distance = 11.06 Angstrom
O 0.000000 0.000000 0.000000
H -0.960000 0.000000 0.000000
H 0.240365 -0.929422 0.000000
O 12.021224 0.000000 0.000000
H 11.061224 0.000000 0.000000
H 12.261589 -0.929422 0.000000
6
Water dimer with O-O distance = 11.31 Angstrom
O 0.000000 0.000000 0.000000
H -0.960000 0.000000 0.000000
H 0.240365 -0.929422 0.000000
O 12.266122 0.000000 0.000000
H 11.306122 0.000000 0.000000
H 12.506487 -0.929422 0.000000
6
Water dimer with O-O distance = 11.55 Angstrom
O 0.000000 0.000000 0.000000
H -0.960000 0.000000 0.000000
H 0.240365 -0.929422 0.000000
O 12.511020 0.000000 0.000000
H 11.551020 0.000000 0.000000
H 12.751385 -0.929422 0.000000
6
Water dimer with O-O distance = 11.80 Angstrom
O 0.000000 0.000000 0.000000
H -0.960000 0.000000 0.000000
H 0.240365 -0.929422 0.000000
O 12.755918 0.000000 0.000000
H 11.795918 0.000000 0.000000
H 12.996283 -0.929422 0.000000
6
Water dimer with O-O distance = 12.04 Angstrom
O 0.000000 0.000000 0.000000
H -0.960000 0.000000 0.000000
H 0.240365 -0.929422 0.000000
O 13.000816 0.000000 0.000000
H 12.040816 0.000000 0.000000
H 13.241181 -0.929422 0.000000
6
Water dimer with O-O distance = 12.29 Angstrom
O 0.000000 0.000000 0.000000
H -0.960000 0.000000 0.000000
H 0.240365 -0.929422 0.000000
O 13.245714 0.000000 0.000000
H 12.285714 0.000000 0.000000
H 13.486079 -0.929422 0.000000
6
Water dimer with O-O distance = 12.53 Angstrom
O 0.000000 0.000000 0.000000
H -0.960000 0.000000 0.000000
H 0.240365 -0.929422 0.000000
O 13.490612 0.000000 0.000000
H 12.530612 0.000000 0.000000
H 13.730977 -0.929422 0.000000
6
Water dimer with O-O distance = 12.78 Angstrom
O 0.000000 0.000000 0.000000
H -0.960000 0.000000 0.000000
H 0.240365 -0.929422 0.000000
O 13.735510 0.000000 0.000000
H 12.775510 0.000000 0.000000
H 13.975875 -0.929422 0.000000
6
Water dimer with O-O distance = 13.02 Angstrom
O 0.000000 0.000000 0.000000
H -0.960000 0.000000 0.000000
H 0.240365 -0.929422 0.000000
O 13.980408 0.000000 0.000000
H 13.020408 0.000000 0.000000
H 14.220773 -0.929422 0.000000
6
Water dimer with O-O distance = 13.27 Angstrom
O 0.000000 0.000000 0.000000
H -0.960000 0.000000 0.000000
H 0.240365 -0.929422 0.000000
O 14.225306 0.000000 0.000000
H 13.265306 0.000000 0.000000
H 14.465671 -0.929422 0.000000
6
Water dimer with O-O distance = 13.51 Angstrom
O 0.000000 0.000000 0.000000
H -0.960000 0.000000 0.000000
H 0.240365 -0.929422 0.000000
O 14.470204 0.000000 0.000000
H 13.510204 0.000000 0.000000
H 14.710569 -0.929422 0.000000
6
Water dimer with O-O distance = 13.76 Angstrom
O 0.000000 0.000000 0.000000
H -0.960000 0.000000 0.000000
H 0.240365 -0.929422 0.000000
O 14.715102 0.000000 0.000000
H 13.755102 0.000000 0.000000
H 14.955467 -0.929422 0.000000
6
Water dimer with O-O distance = 14.00 Angstrom
O 0.000000 0.000000 0.000000
H -0.960000 0.000000 0.000000
H 0.240365 -0.929422 0.000000
O 14.960000 0.000000 0.000000
H 14.000000 0.000000 0.000000
H 15.200365 -0.929422 0.000000
