92
canonical CCSD(T)/CBS = -34.15 kcal/mol
C -0.144956 3.27465 -0.631433
C -1.3036 3.05772 -1.37824
C -2.48399 2.856 -0.662715
C -2.49717 2.82548 0.742857
C -1.32996 2.99323 1.4882
C -0.157622 3.242 0.773277
C -3.92845 2.61765 -1.11888
C -4.23882 1.17442 -0.715348
C -4.25313 1.14508 0.691795
C -3.95026 2.56969 1.16119
C -4.34602 0.00957863 -1.47349
C -4.45383 -1.18699 -0.765815
C -4.46973 -1.21599 0.640013
C -4.37687 -0.0498705 1.39878
C -4.67247 3.36573 0.0303717
C 1.26488 3.70065 -1.04697
C 1.24481 3.64631 1.23324
C 2.24449 2.58016 0.77859
C 2.25699 2.61391 -0.626393
C 3.129 1.77546 1.4977
C 4.058 1.04335 0.757234
C 4.0708 1.07757 -0.647357
C 3.15461 1.84485 -1.36783
C 1.54104 4.71035 0.12038
C 5.22804 0.180989 -1.09861
C 4.84791 -1.24632 -0.699519
C 4.83429 -1.28096 0.708636
C 5.20672 0.124642 1.1849
C 4.52448 -2.37025 -1.44444
C 4.18089 -3.5458 -0.755673
C 4.16684 -3.58001 0.63849
C 4.49643 -2.43992 1.39084
C 6.22992 0.490001 0.0608929
C -4.40151 -2.68962 1.04828
C -2.9982 -3.12914 0.61869
C -2.98152 -3.10006 -0.788422
C -4.37469 -2.64263 -1.23261
C -1.85173 -3.42884 1.33766
C -0.674652 -3.72059 0.626961
C -0.658035 -3.69181 -0.765609
C -1.81794 -3.37034 -1.49152
C -5.22652 -3.31832 -0.115468
H -1.29804 3.0913 -2.46506
H -1.34427 2.97793 2.57537
H -4.15945 2.89316 -2.14791
H -4.20057 2.80221 2.19629
H -4.29572 0.0301384 -2.55913
H -4.34927 -0.0743018 2.48511
H -4.44784 4.43628 0.0549276
H -5.7529 3.19226 0.0164583
H 1.36832 4.0675 -2.06892
H 1.3305 3.96383 2.27319
H 3.13292 1.75974 2.58482
H 3.17792 1.88214 -2.45416
H 0.835088 5.54666 0.134187
H 2.57566 5.06721 0.137959
H 5.56939 0.318553 -2.12449
H 5.52902 0.210975 2.22248
H 4.52615 -2.34567 -2.53072
H 3.92763 -4.44062 -1.31756
H 3.90275 -4.50118 1.15054
H 4.47685 -2.46884 2.47689
H 6.53271 1.54096 0.0897446
H 7.10292 -0.170004 0.052685
H -4.69164 -2.92552 2.07229
H -4.64037 -2.83628 -2.27202
H -1.85516 -3.43955 2.42477
H 0.235481 -3.96304 1.16865
H 0.264995 -3.91188 -1.29481
H -1.79526 -3.33603 -2.57793
H -6.26843 -2.98496 -0.120913
H -5.16504 -4.41055 -0.137193
C 0.239321 -0.447581 -1.41575
C 1.41734 -0.814101 -0.680882
C 1.40268 -0.84375 0.674305
C 0.208809 -0.510436 1.39941
C -0.985926 -0.208328 0.663194
C -0.971053 -0.17798 -0.692573
C 0.270837 -0.358367 -2.80773
C 1.46795 -0.590987 -3.53403
N 2.46487 -0.775335 -4.10746
C -0.888129 -0.00941652 -3.54867
N -1.85146 0.279961 -4.13587
C 0.210801 -0.484643 2.79431
C 1.39285 -0.750179 3.53381
N 2.37847 -0.961306 4.11742
C -0.964405 -0.172232 3.5259
N -1.94089 0.0877713 4.10507
H 2.31861 -1.07674 -1.2197
H 2.29227 -1.12989 1.2204
H -1.90127 0.00218481 1.20005
H -1.87449 0.0569473 -1.23938
