86
canonical CCSD(T)/CBS = -22.03 kcal/mol
C -0.145756 3.43916 -0.495405
C -1.30842 3.20245 -1.22949
C -2.47541 2.96227 -0.503117
C -2.47038 2.93075 0.903027
C -1.30594 3.14061 1.63699
C -0.151268 3.4196 0.909824
C -3.90791 2.61714 -0.937079
C -4.10962 1.15384 -0.527366
C -4.08574 1.12624 0.879607
C -3.89174 2.57182 1.34081
C -4.18412 -0.0199031 -1.27598
C -4.21824 -1.21942 -0.566442
C -4.17822 -1.24493 0.83911
C -4.10811 -0.0728554 1.58962
C -4.69034 3.30712 0.221834
C 1.27924 3.81284 -0.918405
C 1.25585 3.79997 1.36161
C 2.2042 2.68275 0.93044
C 2.23065 2.69269 -0.475293
C 3.01902 1.83431 1.67564
C 3.9169 1.04572 0.960413
C 3.96353 1.06477 -0.443983
C 3.09914 1.86741 -1.19074
C 1.59082 4.83009 0.231015
C 5.11313 0.131787 -0.852423
C 4.70386 -1.28496 -0.447965
C 4.63389 -1.29723 0.959104
C 5.0262 0.102341 1.42786
C 4.40595 -2.42187 -1.18215
C 4.00589 -3.57838 -0.491999
C 3.91295 -3.58154 0.899386
C 4.2313 -2.43299 1.64356
C 6.08984 0.433349 0.33092
C -4.13065 -2.71773 1.24962
C -2.76913 -3.22513 0.768132
C -2.80609 -3.20055 -0.638118
C -4.19132 -2.67756 -1.03024
C -1.62388 -3.61071 1.44566
C -0.504746 -3.99615 0.690928
C -0.540872 -3.9724 -0.702361
C -1.69696 -3.56239 -1.38544
C -5.02719 -3.31826 0.121875
H -1.30758 3.22229 -2.31701
H -1.30235 3.11182 2.72382
H -4.17844 2.87528 -1.96169
H -4.14594 2.78715 2.37918
H -4.20056 -0.00316428 -2.36368
H -4.05583 -0.0933126 2.67543
H -4.54718 4.39165 0.24291
H -5.75453 3.05189 0.223441
H 1.3972 4.15754 -1.94646
H 1.35127 4.1305 2.39658
H 2.99185 1.82647 2.76231
H 3.13618 1.88647 -2.27751
H 0.916027 5.69208 0.228982
H 2.63762 5.14978 0.243762
H 5.491 0.252459 -1.86834
H 5.32395 0.193922 2.47284
H 4.47879 -2.42847 -2.26721
H 3.76598 -4.47987 -1.04862
H 3.5969 -4.48424 1.4145
H 4.15782 -2.44225 2.72769
H 6.41203 1.47841 0.357671
H 6.94972 -0.243899 0.353694
H -4.39144 -2.93973 2.28484
H -4.50645 -2.86514 -2.05731
H -1.58084 -3.61048 2.53132
H 0.406205 -4.29994 1.19887
H 0.341488 -4.26107 -1.26615
H -1.71239 -3.53386 -2.47195
H -6.05559 -2.94565 0.155463
H -5.00693 -4.41211 0.102004
C 0.240085 -0.540721 -2.34572
C 1.33111 -1.0807 -1.64821
C 1.32308 -1.1078 -0.264195
C 0.223315 -0.588188 0.435843
C -0.876266 -0.0654581 -0.258265
C -0.864739 -0.039584 -1.6429
C 0.25199 -0.503417 -3.77291
C 0.220122 -0.59569 1.864
H 2.17969 -1.47527 -2.1923
H 2.16001 -1.52841 0.277746
H -1.72715 0.323748 0.286113
H -1.7091 0.368343 -2.18251
N 0.260307 -0.469667 -4.93564
N 0.219288 -0.595852 3.02656
