113
canonical CCSD(T)/CBS = -32.99 kcal/mol
N -4.36955 -1.46566 0.352005
H -4.35291 -2.24787 -0.351434
N -4.38563 1.30414 -0.642747
H -4.43854 2.07748 0.0692913
O 1.116 -4.47401 -0.681985
O 5.37116 -4.79781 -1.17337
O 5.59823 -3.40911 0.898866
H 5.79368 -3.97578 0.0731575
O 1.76568 -1.84103 3.1536
H 0.765949 -1.76219 2.98744
O -0.732873 -1.66038 2.4551
O -3.45916 -3.33549 -1.09365
O 0.943811 4.39846 0.813528
O 5.15594 4.70418 1.60245
O 5.53209 3.54775 -0.580252
H 5.66233 4.02943 0.311349
O 1.86856 2.05201 -3.1473
H 0.874689 1.89463 -3.01254
O -0.634567 1.66004 -2.51769
O -3.62612 3.17034 0.88991
C 2.08339 -3.90317 0.162837
C 3.4685 -4.02928 -0.025295
C 4.26044 -3.36312 0.978014
C 3.70221 -2.61972 2.03127
C 2.30271 -2.55122 2.14788
C 1.49528 -3.20958 1.20162
C 0.00946238 -3.49573 1.155
C -0.985853 -2.38097 1.46354
C -2.2009 -2.34355 0.695133
C -2.37827 -3.26322 -0.445386
C -1.24034 -4.02972 -0.944233
H -1.33096 -4.46878 -1.93083
C -0.106865 -4.03701 -0.230712
C 4.12087 -4.71601 -1.12924
C 3.32084 -5.31716 -2.25736
H 4.01538 -5.74687 -2.9803
H 2.70509 -4.54792 -2.73485
H 2.6385 -6.08832 -1.88708
C 4.59495 -1.90673 3.00867
H 4.04509 -1.10944 3.51259
H 5.46735 -1.49113 2.49634
H 4.97261 -2.59446 3.77554
C -0.331012 -4.63768 2.17792
H -0.147121 -4.26827 3.18972
H 0.310161 -5.50142 1.98532
H -1.37976 -4.93186 2.07903
C -3.21304 -1.37964 1.00531
C -2.99953 -0.288839 2.01068
H -3.81529 0.432319 2.00573
H -2.0606 0.228278 1.80389
H -2.88788 -0.717545 3.01036
C -5.54437 -0.609383 0.403016
H -5.55287 -0.0462766 1.34072
C -6.80146 -1.49051 0.329848
H -6.7972 -2.17977 1.18077
H -6.74838 -2.10381 -0.58026
C -8.07961 -0.645977 0.310526
H -8.953 -1.30271 0.236097
H -8.17159 -0.0996536 1.25919
C 1.96903 3.90579 -0.00957622
C 3.33848 4.05052 0.26272
C 4.20143 3.48569 -0.746064
C 3.72294 2.83129 -1.8927
C 2.33428 2.70616 -2.07015
C 1.45832 3.25538 -1.1144
C -0.0371626 3.48448 -1.1269
C -0.971161 2.34465 -1.52363
C -2.22493 2.24728 -0.828128
C -2.50075 3.13634 0.319844
C -1.41505 3.90641 0.916441
H -1.57119 4.298 1.91445
C -0.242009 3.96077 0.273264
C 3.91055 4.66454 1.45156
C 3.03715 5.24984 2.53154
H 3.68229 5.66199 3.30855
H 2.3861 4.47705 2.95213
H 2.38735 6.03176 2.12652
C 4.68384 2.26058 -2.89953
H 4.20996 1.45503 -3.46363
H 5.58324 1.88605 -2.40532
H 5.00338 3.02818 -3.61543
C -0.374747 4.65346 -2.11925
H -0.129955 4.33518 -3.1356
H 0.22177 5.53228 -1.86196
H -1.43769 4.90333 -2.05778
C -3.18524 1.25995 -1.21561
C -2.87092 0.18576 -2.21334
H -3.65964 -0.563317 -2.265
H -1.93208 -0.301541 -1.94453
H -2.70902 0.625943 -3.20088
C -5.52313 0.40705 -0.771872
H -5.4488 -0.155358 -1.70711
C -6.81298 1.24256 -0.785758
H -6.77546 1.932 -1.63576
H -6.84378 1.85675 0.124692
C -8.05823 0.352544 -0.852145
H -8.95775 0.977251 -0.837911
H -8.06611 -0.19552 -1.80435
CL 5.29988 -1.4023 -2.09308
N 1.6328 1.28468 1.86914
N 2.1507 -1.4503 -2.00103
N 0.696512 -0.455069 -0.515115
O 0.412486 1.21397 1.68907
O 2.17818 1.87483 2.8094
O 0.845186 -1.24972 -1.64411
C 1.94067 -0.149962 -0.171123
C 2.48597 0.629894 0.887436
C 3.84954 0.775134 0.96832
H 4.25168 1.38039 1.77212
C 4.73479 0.155113 0.0494173
H 5.80182 0.3042 0.159859
C 4.25619 -0.625862 -0.974504
C 2.84562 -0.774323 -1.09996
