86
canonical CCSD(T)/CBS = -19.20 kcal/mol
 C 0.69486804632864 0.94865356691502 2.08126431149099
 C -0.33585659414291 0.00148764694498 1.71833064603245
 C -0.07332195013894 -1.41785544733462 1.76867650640508
 C 1.22845914845183 -1.87523307206526 2.19151063407219
 C 2.23639481554986 -0.90149538897509 2.53646814358559
 C 2.00994627470352 0.45984168560050 2.48988492166599
 C -1.08860908676688 -2.37462142484867 1.41028981853452
 C -2.40684135670969 -1.88283612678732 0.98124860830029
 C -2.66665688034437 -0.47349297659803 0.91798607108713
 C -1.62260659678125 0.48811974105364 1.30642929813245
 N -3.86510078241654 0.03301529909468 0.50668530389306
 C -4.85623856682518 -0.79191530102565 0.14516685488249
 C -4.69949511368132 -2.20868563021835 0.19563278953029
 C -3.47933830369030 -2.74169168103251 0.60920741830270
 C 1.48979942976597 -3.26847268874825 2.25593121247686
 C 0.49691856834327 -4.19496513942253 1.90297028234512 
 C -0.77396145180431 -3.75475793282153 1.48253700903743
 C 0.39316429764731 2.33357410564052 2.02661149597283
 C -0.87683380342320 2.80996366828237 1.64076699336296
 C -1.87237269966417 1.87854213302679 1.27926373016266
 C -6.15927472777660 -0.16876699430458 -0.33495375744361
 C -1.17226443589903 4.30670406746794 1.65962450826910
 C -1.49757166115069 4.84062257016911 3.08131694055298
 C 3.11270113374202 1.43816705802758 2.85505416695981
 H 3.22887722364796 -1.27718483960242 2.84183965014060
 H -5.53184394613756 -2.87169748108185 -0.09779928100592
 H -3.35281303698314 -3.83546269968734 0.63896168090799
 H 2.48695811201549 -3.61387759564769 2.57869923992728
 H 0.70989490616676 -5.27705913278423 1.95006733851282
 H -1.52829337564881 -4.50880783958653 1.20866359932581
 H 1.17294852773309 3.06665112666131 2.28840236841335
 H -2.87126488512968 2.21464173093584 0.96071627271113
 H -6.11682882965555 0.93375234707043 -0.22374497670112
 H -7.03262503289573 -0.55657135031333 0.23770671267260
 H -6.34611880997609 -0.40876709578486 -1.40794655500026
 H -2.02975689855982 4.52497199413506 0.98350790719210
 H -0.29729246494052 4.86278897555330 1.24847139174649
 H -1.70488764666554 5.93447053365027 3.06475749971728
 H -0.64963333513589 4.66422372543479 3.78032817285149
 H 3.34880836554183 2.12007243154534 2.00728443151645
 H 4.04724062994753 0.90406107099975 3.12688594300615
 H 2.82625353970878 2.08415102042360 3.71701322274099
 H -2.38949303899614 4.32782481276413 3.50524008852246
 C -0.02492809795834 2.01222234625719 -1.70688688934540
 C 0.45520760583730 0.65433133486969 -1.58250014032170
 C -0.41365849821833 -0.45927318567227 -1.88670437095651
 C -1.76727802424173 -0.19643531845161 -2.30922842173086
 C -2.21993271849601 1.17027069510776 -2.40185958515597 
 C -1.40465456605264 2.25030361212986 -2.12475357249937
 C 0.05274883542241 -1.81767786788010 -1.78111557283555
 C 1.43142381103052 -2.06109441055261 -1.32870008672125
 C 2.29199232219053 -0.95797361425926 -1.00881045172951
 C 1.80674443214933 0.42468911510833 -1.15587348884640
 N 3.56748686186246 -1.12997993804421 -0.56176164716793
 C 4.06532861530249 -2.36464114082389 -0.40394453277758
 C 3.29433598334215 -3.52094588901375 -0.71800114048404
 C 1.98572030359124 -3.36180499280248 -1.17533219393004
 C -2.62202416363815 -1.28382489577437 -2.62752244109014
 C -2.15805963645723 -2.60341616873136 -2.52885720165619
 C -0.83941514535215 -2.86785349184721 -2.10892180106187
 C 0.86490292275882 3.07737682722275 -1.40881619024961
 C 2.19394128636305 2.85083682608586 -0.99570248541086
 C 2.65120007121551 1.52103607445654 -0.87526351284205
 C 5.47519680683224 -2.48713862736763 0.15576450711754
 C 3.13584739136185 4.02248217384859 -0.73316948718197
 C 3.93585645885997 4.44496530619877 -1.99578977444159
 C -1.93242522472000 3.66832284984948 -2.26173920026556
 H -3.26618794950617 1.34366016718848 -2.70931158721604
 H 3.72464549095208 -4.52904643573466 -0.58972298109298
 H 1.38372309621334 -4.25471069591013 -1.40396270735922
 H -3.65752555042724 -1.07789383071163 -2.94817949823924
 H -2.83053402767456 -3.44384133829397 -2.77198274934221
 H -0.51113467478301 -3.91567011671891 -2.03103262789864
 H 0.51091021637202 4.11768347787787 -1.49364865976260
 H 3.68106319520217 1.30380833192840 -0.55082108748271
 H 6.02763439097966 -3.34332968158222 -0.29028744122961
 H 5.44460651401857 -2.65550112177885 1.25889175613344
 H 6.04159448156685 -1.54976823734251 -0.02254355768977
 H 3.85079117094655 3.75226731094593 0.07823057212748
 H 2.55186898085062 4.89496920167644 -0.35805466497373 
 H 4.61681771561448 5.29820329814949 -1.77689925324358
 H 3.25131381608375 4.75363699461684 -2.81727102950986
 H -2.99656908387322 3.66980041683825 -2.57865645825873
 H -1.35370000431543 4.25306929500565 -3.01387340558806
 H -1.86504669951031 4.22982445135209 -1.30305225835152
 H 4.55337158095054 3.60149941985313 -2.37725929424704 
