88
canonical CCSD(T)/CBS = -20.20 kcal/mol
 C 13.48324366730374 12.21526769256249 22.82324884054274
 C 13.17487714621204 10.85878161834153 23.22404628368714
 C 13.26677535283347 9.78289593960554 22.26435663902586
 C 13.67525555975903 10.08019584701932 20.91315566810697
 C 14.00681067721154 11.43791497715312 20.55959083684640
 C 13.91904776855479 12.48503703163293 21.45527888262836
 C 12.94672885462860 8.42868656073983 22.63310026401965
 C 12.57754594801576 8.13713483597684 24.02908029856305
 C 12.48783854984292 9.20175698707865 24.98915467438758
 C 12.75745806273911 10.59416835090733 24.57682280176583
 C 12.15358165338057 8.87571796218949 26.33816980826761
 C 11.91211100806023 7.56263358601535 26.76894348071287 
 C 11.99870724547729 6.52040516364955 25.80390613698839
 C 12.31909362102111 6.80685581125329 24.47564216019942
 C 13.74520604967432 9.03448651761915 19.95563326925334
 C 13.41352882888593 7.72134884128905 20.31742606249338
 C 13.01759908200060 7.42316657064760 21.63691495550099
 C 13.33547733764429 13.26058435724496 23.77122835878080
 C 12.88716411566541 13.01524633577347 25.08271441726521
 C 12.61603385029897 11.68475779622801 25.46821559264936
 C 11.56806168056560 7.24738317085598 28.21697334510149
 C 12.72435910511491 14.16274357272820 26.07726964470278
 C 14.02804140323400 14.50569446218586 26.84714499508474
 C 14.25131696505844 13.90198718924835 21.02080292280313
 H 14.34235121152929 11.63218063707316 19.52614685407343
 H 11.81263924142607 5.47478169014180 26.10784053637607
 H 12.37942392567258 5.97070808036890 23.76264710397255
 H 14.06347725358250 9.27104692794780 18.92653165942152
 H 13.46049515550522 6.91213339476288 19.56791964778895
 H 12.76376991806930 6.38110942676794 21.88292803083733
 H 13.56184788002182 14.29710755612554 23.47521015333729
 H 12.27016074274367 11.51076644033859 26.49912242059442
 H 12.31402325102849 6.55391422908743 28.67006628415058
 H 11.53410139203137 8.16416699212094 28.84379749733834
 H 10.57669349397007 6.74429609020255 28.29789905545062
 H 11.92325107566513 13.90782691051882 26.80913076022659
 H 12.37253251264341 15.07151147293137 25.53604039408458
 H 14.39134078486821 13.62975637391237 27.42889537760633
 H 14.83895591424005 14.80090344239972 26.14570014488072
 H 15.02411064981552 14.36338564481708 21.67252417986235
 H 13.35355516535660 14.56241422333900 21.06068162231297
 H 14.63814192156058 13.91711782998953 19.98043506989150
 H 13.86561589209891 15.34651585884995 27.55853835108984
 H 12.08435183298805 9.67936517476280 27.08760100763032 
 C 16.30576066853757 9.90100080606988 24.33875982039647
 C 16.71079394644297 10.44890021840738 23.06168631593058
 C 17.03380652695444 11.85222844444123 22.94517593110019
 C 16.95870861874645 12.68996670203071 24.11766490124305
 C 16.53976231260850 12.11014296942770 25.36974173108378
 C 16.21433716552390 10.77561866955329 25.50506795395979
 C 17.44220400033053 12.41913061427617 21.68604480808639
 C 17.45104089686257 11.56242558461708 20.48743023293925
 C 17.14369086233970 10.16419600353756 20.59972275976844
 C 16.80194933745584 9.58443880160288 21.91344018748288
 C 17.13745766887748 9.37098226682461 19.41464829672418
 C 17.40932098276748 9.89766928683554 18.14351280133305
 C 17.70651155318133 11.28622502525641 18.04813690074560
 C 17.72754526928118 12.08859714644084 19.19045998302352
 C 17.30983195781383 14.06298969111333 24.02163335876335
 C 17.73667627785508 14.60121436986461 22.79874878044555
 C 17.80189901553829 13.79000438896716 21.64751370674701
 C 16.01731739734231 8.51534118632789 24.43063044447685
 C 16.13856371673882 7.65947936477368 23.32036545169946
 C 16.53131000983136 8.20625679279325 22.08034639099856
 C 17.38477239483875 9.02596466498964 16.89666634194867
 C 15.89396431221624 6.16166957872964 23.46325287041730
 C 17.17521225793567 5.37790551711279 23.85862989323233
 C 15.78927861107398 10.21808038020374 26.85285016086760
 H 16.48886741323470 12.77270999997396 26.25035432606879
 H 17.91855027915039 11.73475461685047 17.06100833613060
 H 17.95182681585530 13.15972948360380 19.07118393430257
 H 17.25484566429213 14.69601461532509 24.92447358417501
 H 18.02221480655709 15.66539845196477 22.73180353132059
 H 18.13917599080690 14.24708129833835 20.70487974926903
 H 15.68863737086105 8.08960449801571 25.39152484552282
 H 16.60635085979129 7.52286430472765 21.22142683690781 
 H 18.38136041799216 9.00293893925043 16.39750882078030
 H 17.10006403050817 7.97759902756593 17.13036853082124
 H 16.66161609475700 9.41470974475311 16.14273421681929
 H 15.49457296280806 5.75997796569713 22.50405151005421
 H 15.10461002314662 5.98922472084253 24.22938480822074
 H 17.97757573977504 5.50904788304714 23.09845597187817
 H 17.57885455315054 5.73694614317020 24.83161162634453
 H 16.50091836045413 9.44298357381982 27.22121338096738
 H 14.78995458059371 9.73301537027354 26.79961932348358
 H 15.73839633633660 11.02124793615100 27.61793792254727
 H 16.96866645779177 4.28791094150354 23.95428597435912
 H 16.89052273304359 8.30095243652477 19.48356625630944 
