84
canonical CCSD(T)/CBS = -36.54 kcal/mol
C -3.6642303 -2.4521942 -3.7502499
C -3.2048814 -2.9458462 -2.5515376
C -3.2184958 -2.1403428 -1.3781824
C -3.7367305 -0.7959762 -1.4636097
C -4.2119949 -0.3265451 -2.7196384
C -4.1707919 -1.1295120 -3.8355132
C -2.7007073 -2.5921677 -0.1560789
C -2.6396816 -1.7677535 0.9709244
C -3.1566178 -0.4164600 0.8856001
C -3.7066696 0.0208951 -0.3226450
C -3.0334026 0.4589315 2.0158294
C -2.3972706 0.0108306 3.1341404
C -1.8730245 -1.3275795 3.2099057
C -2.0071110 -2.2053058 2.1788869
C -1.9627382 0.7084218 4.4240144
C -0.4488475 0.8308025 4.2511352
C 0.0729472 -0.4733931 4.2941694
C -1.1114762 -1.4122626 4.5272063
C 1.3984608 -0.7503087 3.9578135
C 2.2097517 0.3525103 3.6977003
C 1.6949544 1.6615575 3.6515598
C 0.3441920 1.9175156 3.8871498
C 2.8062512 2.5444748 3.0730918
C 2.9239747 2.0567023 1.6276475
C 3.4656574 0.7255828 1.7051266
C 3.6483741 0.4242151 3.1876240
C 4.0455785 1.8398405 3.6981545
C -2.0108326 -0.4965381 5.4087888
C 2.5329377 2.5940703 0.4385109
C 2.6392633 1.8023123 -0.7538902
C 3.1916494 0.4651130 -0.6729982
C 3.6196303 -0.0453761 0.5948258
C 2.1655693 2.2647062 -1.9845859
C 2.1732543 1.4578254 -3.1328778
C 2.7187625 0.1241565 -3.0500382
C 3.2286093 -0.3263174 -1.8242186
C 1.6124163 1.8905522 -4.3668063
C 1.5785029 1.0550270 -5.4583235
C 2.1177902 -0.2552368 -5.3772665
C 2.6774927 -0.7066239 -4.2052015
O 1.8849868 -2.0466814 3.8808749
O -0.2417919 3.1577788 3.7574157
H 2.7213595 3.6246267 3.2120976
H 4.2885184 -0.4193293 3.4391905
H 4.0571468 1.9058893 4.7893309
H 4.9905544 2.1933857 3.2745450
H -3.0206192 -0.8974770 5.5403134
H -1.5552600 -0.2645532 6.3753233
H -2.4982145 1.6184013 4.6895387
H -0.8679457 -2.4102215 4.8874825
H 4.0106285 -1.0578350 0.6507991
H 2.1085049 3.5931310 0.3664674
H -3.4149644 1.4743379 1.9391471
H -1.5993234 -3.2116366 2.2257355
H 1.7424038 3.2652524 -2.0469122
H 3.6318607 -1.3349995 -1.7580980
H 1.1896166 2.8900986 -4.4267888
H 1.1264657 1.3936020 -6.3855120
H 2.0842813 -0.9028322 -6.2487680
H 3.0839710 -1.7126697 -4.1382944
H -2.3000625 -3.6021312 -0.0930108
H -4.0879239 1.0377021 -0.3925049
H -2.8090956 -3.9562284 -2.4853447
H -4.5912088 0.6898571 -2.7881972
H -4.5172635 -0.7472126 -4.7907600
H -3.6393889 -3.0746101 -4.6402031
H 0.4403310 3.7956982 3.4936781
H 1.7084769 -2.3684570 2.9709703
C -0.0395379 -1.6488245 -2.3066129
C 0.0948196 -1.0670552 -1.0199381
C -0.3418297 0.2433535 -0.8043393
C -0.9061153 0.9729622 -1.8509311
C -1.0445110 0.3930941 -3.1376947
C -0.6065226 -0.9180987 -3.3503571
H -0.2408083 0.6916694 0.1760905
H -0.7069082 -1.3679119 -4.3286152
C -1.6211406 1.1344404 -4.2094319
C -1.3343928 2.3095009 -1.6055645
C 0.6700750 -1.7825286 0.0694730
C 0.4038709 -2.9815185 -2.5387935
N -1.6717357 3.3992827 -1.3845204
N -2.0899483 1.7358828 -5.0867513
N 0.7671745 -4.0693264 -2.7274835
N 1.1309503 -2.3181126 0.9908103
