84
canonical CCSD(T)/CBS = -30.79 kcal/mol
C -2.8290906 -2.5676035 -0.2224696
C -3.3322106 -2.1021519 -1.4456941
C -3.7923636 -0.7374665 -1.5400330
C -3.7424774 0.0782307 -0.4006555
C -3.2071077 -0.3731909 0.8084765
C -2.7234678 -1.7371611 0.8963039
C -4.2383970 -0.2529211 -2.8026434
C -4.2354790 -1.0650491 -3.9115480
C -3.7963153 -2.4123568 -3.8151978
C -3.3593442 -2.9161972 -2.6139868
C -3.0648597 0.4997165 1.9371285
C -2.4333488 0.0423246 3.0531941
C -1.9171741 -1.2992180 3.1250606
C -2.0764936 -2.1782627 2.0977591
C -1.1460346 -1.3861534 4.4390124
C 0.0404091 -0.4477769 4.2075769
C -0.4803930 0.8561282 4.1632708
C -1.9927230 0.7362722 4.3418865
C -2.0408837 -0.4699333 5.3250119
C 1.3652834 -0.7225982 3.8692594
C 2.1726687 0.3762541 3.5833927
C 1.6558560 1.6842013 3.5364535
C 0.3081227 1.9411288 3.7861035
C 2.7648294 2.5701091 2.9606178
C 2.8881077 2.0916526 1.5136276
C 3.4328386 0.7620831 1.5832296
C 3.6095101 0.4506126 3.0659591
C 4.0052657 1.8647024 3.5837915
C 3.6001268 0.0053337 0.4649014
C 3.1815743 0.5279327 -0.8021373
C 2.6181886 1.8614860 -0.8712041
C 2.5004348 2.6386123 0.3283968
C 3.2396539 -0.2441193 -1.9648881
C 2.7292677 0.2153075 -3.1872129
C 2.1611374 1.5402029 -3.2538297
C 2.1449139 2.3337714 -2.0979915
C 2.7163028 -0.5950813 -4.3583815
C 2.1582593 -0.1373803 -5.5270446
C 1.5847726 1.1609770 -5.5886806
C 1.5920392 1.9781037 -4.4839022
O 1.8540307 -2.0231011 3.8166038
O -0.2781619 3.1813826 3.6691121
H 2.6767356 3.6490352 3.1067455
H 4.2522783 -0.3921588 3.3145159
H 4.0159356 1.9255466 4.6753810
H 4.9500390 2.2213991 3.1619553
H -3.0512970 -0.8688465 5.4586870
H -1.5815213 -0.2410026 6.2906372
H -2.5255146 1.6470240 4.6100962
H -0.9043172 -2.3851173 4.7981183
H 3.9978793 -1.0053136 0.5125766
H 2.0635117 3.6324331 0.2660512
H -3.4220854 1.5233619 1.8590618
H -1.6844962 -3.1917494 2.1429783
H 1.7077731 3.3291101 -2.1483006
H 3.6604607 -1.2468340 -1.9121176
H 1.1509012 2.9707816 -4.5275502
H 1.1427035 1.5072548 -6.5186770
H 2.1503844 -0.7688709 -6.4110487
H 3.1474013 -1.5919908 -4.3056862
H -2.4618350 -3.5899947 -0.1579421
H -4.0884608 1.1076124 -0.4728068
H -3.0120385 -3.9437968 -2.5391212
H -4.5712237 0.7796151 -2.8746655
H -4.5741145 -0.6794559 -4.8691236
H -3.8049372 -3.0431276 -4.6997112
H 0.3676296 3.7923877 3.2804161
H 1.7036535 -2.3456057 2.9064708
C -0.5387245 -1.0939244 -3.3942733
C -0.0212031 -1.9551172 -2.4341782
C 0.1561509 -1.5278976 -1.1086726
C -0.1729336 -0.2236990 -0.7497963
C -0.6988926 0.6106328 -1.7193776
C -0.8933254 0.1985158 -3.0391980
F 0.3299407 -3.1875905 -2.8219233
N 0.6650957 -2.4129891 -0.0575683
N -1.0678272 1.9819548 -1.3370778
H -1.3068706 0.8890799 -3.7609821
H -0.0322399 0.1154498 0.2679749
H -0.6541680 -1.4539276 -4.4086042
O 1.0905598 -1.8637403 0.9700142
O 0.6262101 -3.6302864 -0.2353275
O -1.5383126 2.7090137 -2.2206764
O -0.8861728 2.3240247 -0.1659033
