memory 4 GB
molecule mol {
0 1
6       2.2924117880    1.1062202300    0.2673807780
8       1.5887934230    0.1329057420    0.0275931760
8       1.8199854540    2.3086556180    0.5551592490
6       3.7891242360    1.0603174840    0.2654163830
1       0.8261969140    2.2757573840    0.5407587450
1       4.1267038000    0.0589982910    0.0278908880
1       4.1706227810    1.7706704230    -0.4640525150
1       4.1606405470    1.3630120010    1.2414717440
}

set {
basis jun-cc-pvdz
freeze_core true
guess sad
scf_type df
}

energy('hf')
