24
Benzene dimer with center-to-center distance = 9.07 Angstrom
C 1.390000 -0.000000 0.000000
C 0.695000 1.203775 0.000000
C -0.695000 1.203775 0.000000
C -1.390000 0.000000 0.000000
C -0.695000 -1.203775 0.000000
C 0.695000 -1.203775 0.000000
H 2.480000 -0.000000 0.000000
H 1.240000 2.147743 0.000000
H -1.240000 2.147743 0.000000
H -2.480000 0.000000 0.000000
H -1.240000 -2.147743 0.000000
H 1.240000 -2.147743 0.000000
C 1.390000 -0.000000 9.071429
C 0.695000 1.203775 9.071429
C -0.695000 1.203775 9.071429
C -1.390000 0.000000 9.071429
C -0.695000 -1.203775 9.071429
C 0.695000 -1.203775 9.071429
H 2.480000 -0.000000 9.071429
H 1.240000 2.147743 9.071429
H -1.240000 2.147743 9.071429
H -2.480000 0.000000 9.071429
H -1.240000 -2.147743 9.071429
H 1.240000 -2.147743 9.071429
