24
Benzene dimer with center-to-center distance = 3.50 Angstrom
C 1.390000 -0.000000 0.000000
C 0.695000 1.203775 0.000000
C -0.695000 1.203775 0.000000
C -1.390000 0.000000 0.000000
C -0.695000 -1.203775 0.000000
C 0.695000 -1.203775 0.000000
H 2.480000 -0.000000 0.000000
H 1.240000 2.147743 0.000000
H -1.240000 2.147743 0.000000
H -2.480000 0.000000 0.000000
H -1.240000 -2.147743 0.000000
H 1.240000 -2.147743 0.000000
C 1.390000 -0.000000 3.500000
C 0.695000 1.203775 3.500000
C -0.695000 1.203775 3.500000
C -1.390000 0.000000 3.500000
C -0.695000 -1.203775 3.500000
C 0.695000 -1.203775 3.500000
H 2.480000 -0.000000 3.500000
H 1.240000 2.147743 3.500000
H -1.240000 2.147743 3.500000
H -2.480000 0.000000 3.500000
H -1.240000 -2.147743 3.500000
H 1.240000 -2.147743 3.500000
24
Benzene dimer with center-to-center distance = 3.71 Angstrom
C 1.390000 -0.000000 0.000000
C 0.695000 1.203775 0.000000
C -0.695000 1.203775 0.000000
C -1.390000 0.000000 0.000000
C -0.695000 -1.203775 0.000000
C 0.695000 -1.203775 0.000000
H 2.480000 -0.000000 0.000000
H 1.240000 2.147743 0.000000
H -1.240000 2.147743 0.000000
H -2.480000 0.000000 0.000000
H -1.240000 -2.147743 0.000000
H 1.240000 -2.147743 0.000000
C 1.390000 -0.000000 3.714286
C 0.695000 1.203775 3.714286
C -0.695000 1.203775 3.714286
C -1.390000 0.000000 3.714286
C -0.695000 -1.203775 3.714286
C 0.695000 -1.203775 3.714286
H 2.480000 -0.000000 3.714286
H 1.240000 2.147743 3.714286
H -1.240000 2.147743 3.714286
H -2.480000 0.000000 3.714286
H -1.240000 -2.147743 3.714286
H 1.240000 -2.147743 3.714286
24
Benzene dimer with center-to-center distance = 3.93 Angstrom
C 1.390000 -0.000000 0.000000
C 0.695000 1.203775 0.000000
C -0.695000 1.203775 0.000000
C -1.390000 0.000000 0.000000
C -0.695000 -1.203775 0.000000
C 0.695000 -1.203775 0.000000
H 2.480000 -0.000000 0.000000
H 1.240000 2.147743 0.000000
H -1.240000 2.147743 0.000000
H -2.480000 0.000000 0.000000
H -1.240000 -2.147743 0.000000
H 1.240000 -2.147743 0.000000
C 1.390000 -0.000000 3.928571
C 0.695000 1.203775 3.928571
C -0.695000 1.203775 3.928571
C -1.390000 0.000000 3.928571
C -0.695000 -1.203775 3.928571
C 0.695000 -1.203775 3.928571
H 2.480000 -0.000000 3.928571
H 1.240000 2.147743 3.928571
H -1.240000 2.147743 3.928571
H -2.480000 0.000000 3.928571
H -1.240000 -2.147743 3.928571
H 1.240000 -2.147743 3.928571
24
Benzene dimer with center-to-center distance = 4.14 Angstrom
C 1.390000 -0.000000 0.000000
C 0.695000 1.203775 0.000000
C -0.695000 1.203775 0.000000
C -1.390000 0.000000 0.000000
C -0.695000 -1.203775 0.000000
C 0.695000 -1.203775 0.000000
H 2.480000 -0.000000 0.000000
H 1.240000 2.147743 0.000000
H -1.240000 2.147743 0.000000
H -2.480000 0.000000 0.000000
H -1.240000 -2.147743 0.000000
H 1.240000 -2.147743 0.000000
C 1.390000 -0.000000 4.142857
C 0.695000 1.203775 4.142857
C -0.695000 1.203775 4.142857
C -1.390000 0.000000 4.142857
C -0.695000 -1.203775 4.142857
C 0.695000 -1.203775 4.142857
H 2.480000 -0.000000 4.142857
H 1.240000 2.147743 4.142857
H -1.240000 2.147743 4.142857
H -2.480000 0.000000 4.142857
H -1.240000 -2.147743 4.142857
H 1.240000 -2.147743 4.142857
24
Benzene dimer with center-to-center distance = 4.36 Angstrom
C 1.390000 -0.000000 0.000000
C 0.695000 1.203775 0.000000
C -0.695000 1.203775 0.000000
C -1.390000 0.000000 0.000000
C -0.695000 -1.203775 0.000000
C 0.695000 -1.203775 0.000000
H 2.480000 -0.000000 0.000000
H 1.240000 2.147743 0.000000
H -1.240000 2.147743 0.000000
H -2.480000 0.000000 0.000000
H -1.240000 -2.147743 0.000000
H 1.240000 -2.147743 0.000000
C 1.390000 -0.000000 4.357143
C 0.695000 1.203775 4.357143
C -0.695000 1.203775 4.357143
C -1.390000 0.000000 4.357143
C -0.695000 -1.203775 4.357143
C 0.695000 -1.203775 4.357143
H 2.480000 -0.000000 4.357143
H 1.240000 2.147743 4.357143
H -1.240000 2.147743 4.357143
H -2.480000 0.000000 4.357143
H -1.240000 -2.147743 4.357143
H 1.240000 -2.147743 4.357143
24
Benzene dimer with center-to-center distance = 4.57 Angstrom
C 1.390000 -0.000000 0.000000
C 0.695000 1.203775 0.000000
C -0.695000 1.203775 0.000000
C -1.390000 0.000000 0.000000
C -0.695000 -1.203775 0.000000
C 0.695000 -1.203775 0.000000
H 2.480000 -0.000000 0.000000
H 1.240000 2.147743 0.000000
H -1.240000 2.147743 0.000000
H -2.480000 0.000000 0.000000
H -1.240000 -2.147743 0.000000
H 1.240000 -2.147743 0.000000
C 1.390000 -0.000000 4.571429
C 0.695000 1.203775 4.571429
C -0.695000 1.203775 4.571429
C -1.390000 0.000000 4.571429
C -0.695000 -1.203775 4.571429
C 0.695000 -1.203775 4.571429
H 2.480000 -0.000000 4.571429
H 1.240000 2.147743 4.571429
H -1.240000 2.147743 4.571429
H -2.480000 0.000000 4.571429
H -1.240000 -2.147743 4.571429
H 1.240000 -2.147743 4.571429
24
Benzene dimer with center-to-center distance = 4.79 Angstrom
C 1.390000 -0.000000 0.000000
C 0.695000 1.203775 0.000000
C -0.695000 1.203775 0.000000
C -1.390000 0.000000 0.000000
C -0.695000 -1.203775 0.000000
C 0.695000 -1.203775 0.000000
H 2.480000 -0.000000 0.000000
H 1.240000 2.147743 0.000000
H -1.240000 2.147743 0.000000
H -2.480000 0.000000 0.000000
H -1.240000 -2.147743 0.000000
H 1.240000 -2.147743 0.000000
C 1.390000 -0.000000 4.785714
C 0.695000 1.203775 4.785714
C -0.695000 1.203775 4.785714
C -1.390000 0.000000 4.785714
C -0.695000 -1.203775 4.785714
C 0.695000 -1.203775 4.785714
H 2.480000 -0.000000 4.785714
H 1.240000 2.147743 4.785714
H -1.240000 2.147743 4.785714
H -2.480000 0.000000 4.785714
H -1.240000 -2.147743 4.785714
H 1.240000 -2.147743 4.785714
24
Benzene dimer with center-to-center distance = 5.00 Angstrom
C 1.390000 -0.000000 0.000000
C 0.695000 1.203775 0.000000
C -0.695000 1.203775 0.000000
C -1.390000 0.000000 0.000000
C -0.695000 -1.203775 0.000000
C 0.695000 -1.203775 0.000000
H 2.480000 -0.000000 0.000000
H 1.240000 2.147743 0.000000
H -1.240000 2.147743 0.000000
H -2.480000 0.000000 0.000000
H -1.240000 -2.147743 0.000000
H 1.240000 -2.147743 0.000000
C 1.390000 -0.000000 5.000000
C 0.695000 1.203775 5.000000
C -0.695000 1.203775 5.000000
C -1.390000 0.000000 5.000000
C -0.695000 -1.203775 5.000000
C 0.695000 -1.203775 5.000000
H 2.480000 -0.000000 5.000000
H 1.240000 2.147743 5.000000
H -1.240000 2.147743 5.000000
H -2.480000 0.000000 5.000000
H -1.240000 -2.147743 5.000000
H 1.240000 -2.147743 5.000000
24
Benzene dimer with center-to-center distance = 5.21 Angstrom
C 1.390000 -0.000000 0.000000
C 0.695000 1.203775 0.000000
C -0.695000 1.203775 0.000000
C -1.390000 0.000000 0.000000
C -0.695000 -1.203775 0.000000
C 0.695000 -1.203775 0.000000
H 2.480000 -0.000000 0.000000
H 1.240000 2.147743 0.000000
H -1.240000 2.147743 0.000000
H -2.480000 0.000000 0.000000
H -1.240000 -2.147743 0.000000
H 1.240000 -2.147743 0.000000
C 1.390000 -0.000000 5.214286
C 0.695000 1.203775 5.214286
C -0.695000 1.203775 5.214286
C -1.390000 0.000000 5.214286
C -0.695000 -1.203775 5.214286
C 0.695000 -1.203775 5.214286
H 2.480000 -0.000000 5.214286
H 1.240000 2.147743 5.214286
H -1.240000 2.147743 5.214286
H -2.480000 0.000000 5.214286
H -1.240000 -2.147743 5.214286
H 1.240000 -2.147743 5.214286
24
Benzene dimer with center-to-center distance = 5.43 Angstrom
C 1.390000 -0.000000 0.000000
C 0.695000 1.203775 0.000000
C -0.695000 1.203775 0.000000
C -1.390000 0.000000 0.000000
C -0.695000 -1.203775 0.000000
C 0.695000 -1.203775 0.000000
H 2.480000 -0.000000 0.000000
H 1.240000 2.147743 0.000000
H -1.240000 2.147743 0.000000
H -2.480000 0.000000 0.000000
H -1.240000 -2.147743 0.000000
H 1.240000 -2.147743 0.000000
C 1.390000 -0.000000 5.428571
C 0.695000 1.203775 5.428571
C -0.695000 1.203775 5.428571
C -1.390000 0.000000 5.428571
C -0.695000 -1.203775 5.428571
C 0.695000 -1.203775 5.428571
H 2.480000 -0.000000 5.428571
H 1.240000 2.147743 5.428571
H -1.240000 2.147743 5.428571
H -2.480000 0.000000 5.428571
H -1.240000 -2.147743 5.428571
H 1.240000 -2.147743 5.428571
24
Benzene dimer with center-to-center distance = 5.64 Angstrom
C 1.390000 -0.000000 0.000000
C 0.695000 1.203775 0.000000
C -0.695000 1.203775 0.000000
C -1.390000 0.000000 0.000000
C -0.695000 -1.203775 0.000000
C 0.695000 -1.203775 0.000000
H 2.480000 -0.000000 0.000000
H 1.240000 2.147743 0.000000
H -1.240000 2.147743 0.000000
H -2.480000 0.000000 0.000000
H -1.240000 -2.147743 0.000000
H 1.240000 -2.147743 0.000000
C 1.390000 -0.000000 5.642857
C 0.695000 1.203775 5.642857
C -0.695000 1.203775 5.642857
C -1.390000 0.000000 5.642857
C -0.695000 -1.203775 5.642857
C 0.695000 -1.203775 5.642857
H 2.480000 -0.000000 5.642857
H 1.240000 2.147743 5.642857
H -1.240000 2.147743 5.642857
H -2.480000 0.000000 5.642857
H -1.240000 -2.147743 5.642857
H 1.240000 -2.147743 5.642857
24
Benzene dimer with center-to-center distance = 5.86 Angstrom
C 1.390000 -0.000000 0.000000
C 0.695000 1.203775 0.000000
C -0.695000 1.203775 0.000000
C -1.390000 0.000000 0.000000
C -0.695000 -1.203775 0.000000
C 0.695000 -1.203775 0.000000
H 2.480000 -0.000000 0.000000
H 1.240000 2.147743 0.000000
H -1.240000 2.147743 0.000000
H -2.480000 0.000000 0.000000
H -1.240000 -2.147743 0.000000
H 1.240000 -2.147743 0.000000
C 1.390000 -0.000000 5.857143
C 0.695000 1.203775 5.857143
C -0.695000 1.203775 5.857143
C -1.390000 0.000000 5.857143
C -0.695000 -1.203775 5.857143
C 0.695000 -1.203775 5.857143
H 2.480000 -0.000000 5.857143
H 1.240000 2.147743 5.857143
H -1.240000 2.147743 5.857143
H -2.480000 0.000000 5.857143
H -1.240000 -2.147743 5.857143
H 1.240000 -2.147743 5.857143
24
Benzene dimer with center-to-center distance = 6.07 Angstrom
C 1.390000 -0.000000 0.000000
C 0.695000 1.203775 0.000000
C -0.695000 1.203775 0.000000
C -1.390000 0.000000 0.000000
C -0.695000 -1.203775 0.000000
C 0.695000 -1.203775 0.000000
H 2.480000 -0.000000 0.000000
H 1.240000 2.147743 0.000000
H -1.240000 2.147743 0.000000
H -2.480000 0.000000 0.000000
H -1.240000 -2.147743 0.000000
H 1.240000 -2.147743 0.000000
C 1.390000 -0.000000 6.071429
C 0.695000 1.203775 6.071429
C -0.695000 1.203775 6.071429
C -1.390000 0.000000 6.071429
C -0.695000 -1.203775 6.071429
C 0.695000 -1.203775 6.071429
H 2.480000 -0.000000 6.071429
H 1.240000 2.147743 6.071429
H -1.240000 2.147743 6.071429
H -2.480000 0.000000 6.071429
H -1.240000 -2.147743 6.071429
H 1.240000 -2.147743 6.071429
24
Benzene dimer with center-to-center distance = 6.29 Angstrom
C 1.390000 -0.000000 0.000000
C 0.695000 1.203775 0.000000
C -0.695000 1.203775 0.000000
C -1.390000 0.000000 0.000000
C -0.695000 -1.203775 0.000000
C 0.695000 -1.203775 0.000000
H 2.480000 -0.000000 0.000000
H 1.240000 2.147743 0.000000
H -1.240000 2.147743 0.000000
H -2.480000 0.000000 0.000000
H -1.240000 -2.147743 0.000000
H 1.240000 -2.147743 0.000000
C 1.390000 -0.000000 6.285714
C 0.695000 1.203775 6.285714
C -0.695000 1.203775 6.285714
C -1.390000 0.000000 6.285714
C -0.695000 -1.203775 6.285714
C 0.695000 -1.203775 6.285714
H 2.480000 -0.000000 6.285714
H 1.240000 2.147743 6.285714
H -1.240000 2.147743 6.285714
H -2.480000 0.000000 6.285714
H -1.240000 -2.147743 6.285714
H 1.240000 -2.147743 6.285714
24
Benzene dimer with center-to-center distance = 6.50 Angstrom
C 1.390000 -0.000000 0.000000
C 0.695000 1.203775 0.000000
C -0.695000 1.203775 0.000000
C -1.390000 0.000000 0.000000
C -0.695000 -1.203775 0.000000
C 0.695000 -1.203775 0.000000
H 2.480000 -0.000000 0.000000
H 1.240000 2.147743 0.000000
H -1.240000 2.147743 0.000000
H -2.480000 0.000000 0.000000
H -1.240000 -2.147743 0.000000
H 1.240000 -2.147743 0.000000
C 1.390000 -0.000000 6.500000
C 0.695000 1.203775 6.500000
C -0.695000 1.203775 6.500000
C -1.390000 0.000000 6.500000
C -0.695000 -1.203775 6.500000
C 0.695000 -1.203775 6.500000
H 2.480000 -0.000000 6.500000
H 1.240000 2.147743 6.500000
H -1.240000 2.147743 6.500000
H -2.480000 0.000000 6.500000
H -1.240000 -2.147743 6.500000
H 1.240000 -2.147743 6.500000
24
Benzene dimer with center-to-center distance = 6.71 Angstrom
C 1.390000 -0.000000 0.000000
C 0.695000 1.203775 0.000000
C -0.695000 1.203775 0.000000
C -1.390000 0.000000 0.000000
C -0.695000 -1.203775 0.000000
C 0.695000 -1.203775 0.000000
H 2.480000 -0.000000 0.000000
H 1.240000 2.147743 0.000000
H -1.240000 2.147743 0.000000
H -2.480000 0.000000 0.000000
H -1.240000 -2.147743 0.000000
H 1.240000 -2.147743 0.000000
C 1.390000 -0.000000 6.714286
C 0.695000 1.203775 6.714286
C -0.695000 1.203775 6.714286
C -1.390000 0.000000 6.714286
C -0.695000 -1.203775 6.714286
C 0.695000 -1.203775 6.714286
H 2.480000 -0.000000 6.714286
H 1.240000 2.147743 6.714286
H -1.240000 2.147743 6.714286
H -2.480000 0.000000 6.714286
H -1.240000 -2.147743 6.714286
H 1.240000 -2.147743 6.714286
24
Benzene dimer with center-to-center distance = 6.93 Angstrom
C 1.390000 -0.000000 0.000000
C 0.695000 1.203775 0.000000
C -0.695000 1.203775 0.000000
C -1.390000 0.000000 0.000000
C -0.695000 -1.203775 0.000000
C 0.695000 -1.203775 0.000000
H 2.480000 -0.000000 0.000000
H 1.240000 2.147743 0.000000
H -1.240000 2.147743 0.000000
H -2.480000 0.000000 0.000000
H -1.240000 -2.147743 0.000000
H 1.240000 -2.147743 0.000000
C 1.390000 -0.000000 6.928571
C 0.695000 1.203775 6.928571
C -0.695000 1.203775 6.928571
C -1.390000 0.000000 6.928571
C -0.695000 -1.203775 6.928571
C 0.695000 -1.203775 6.928571
H 2.480000 -0.000000 6.928571
H 1.240000 2.147743 6.928571
H -1.240000 2.147743 6.928571
H -2.480000 0.000000 6.928571
H -1.240000 -2.147743 6.928571
H 1.240000 -2.147743 6.928571
24
Benzene dimer with center-to-center distance = 7.14 Angstrom
C 1.390000 -0.000000 0.000000
C 0.695000 1.203775 0.000000
C -0.695000 1.203775 0.000000
C -1.390000 0.000000 0.000000
C -0.695000 -1.203775 0.000000
C 0.695000 -1.203775 0.000000
H 2.480000 -0.000000 0.000000
H 1.240000 2.147743 0.000000
H -1.240000 2.147743 0.000000
H -2.480000 0.000000 0.000000
H -1.240000 -2.147743 0.000000
H 1.240000 -2.147743 0.000000
C 1.390000 -0.000000 7.142857
C 0.695000 1.203775 7.142857
C -0.695000 1.203775 7.142857
C -1.390000 0.000000 7.142857
C -0.695000 -1.203775 7.142857
C 0.695000 -1.203775 7.142857
H 2.480000 -0.000000 7.142857
H 1.240000 2.147743 7.142857
H -1.240000 2.147743 7.142857
H -2.480000 0.000000 7.142857
H -1.240000 -2.147743 7.142857
H 1.240000 -2.147743 7.142857
24
Benzene dimer with center-to-center distance = 7.36 Angstrom
C 1.390000 -0.000000 0.000000
C 0.695000 1.203775 0.000000
C -0.695000 1.203775 0.000000
C -1.390000 0.000000 0.000000
C -0.695000 -1.203775 0.000000
C 0.695000 -1.203775 0.000000
H 2.480000 -0.000000 0.000000
H 1.240000 2.147743 0.000000
H -1.240000 2.147743 0.000000
H -2.480000 0.000000 0.000000
H -1.240000 -2.147743 0.000000
H 1.240000 -2.147743 0.000000
C 1.390000 -0.000000 7.357143
C 0.695000 1.203775 7.357143
C -0.695000 1.203775 7.357143
C -1.390000 0.000000 7.357143
C -0.695000 -1.203775 7.357143
C 0.695000 -1.203775 7.357143
H 2.480000 -0.000000 7.357143
H 1.240000 2.147743 7.357143
H -1.240000 2.147743 7.357143
H -2.480000 0.000000 7.357143
H -1.240000 -2.147743 7.357143
H 1.240000 -2.147743 7.357143
24
Benzene dimer with center-to-center distance = 7.57 Angstrom
C 1.390000 -0.000000 0.000000
C 0.695000 1.203775 0.000000
C -0.695000 1.203775 0.000000
C -1.390000 0.000000 0.000000
C -0.695000 -1.203775 0.000000
C 0.695000 -1.203775 0.000000
H 2.480000 -0.000000 0.000000
H 1.240000 2.147743 0.000000
H -1.240000 2.147743 0.000000
H -2.480000 0.000000 0.000000
H -1.240000 -2.147743 0.000000
H 1.240000 -2.147743 0.000000
C 1.390000 -0.000000 7.571429
C 0.695000 1.203775 7.571429
C -0.695000 1.203775 7.571429
C -1.390000 0.000000 7.571429
C -0.695000 -1.203775 7.571429
C 0.695000 -1.203775 7.571429
H 2.480000 -0.000000 7.571429
H 1.240000 2.147743 7.571429
H -1.240000 2.147743 7.571429
H -2.480000 0.000000 7.571429
H -1.240000 -2.147743 7.571429
H 1.240000 -2.147743 7.571429
24
Benzene dimer with center-to-center distance = 7.79 Angstrom
C 1.390000 -0.000000 0.000000
C 0.695000 1.203775 0.000000
C -0.695000 1.203775 0.000000
C -1.390000 0.000000 0.000000
C -0.695000 -1.203775 0.000000
C 0.695000 -1.203775 0.000000
H 2.480000 -0.000000 0.000000
H 1.240000 2.147743 0.000000
H -1.240000 2.147743 0.000000
H -2.480000 0.000000 0.000000
H -1.240000 -2.147743 0.000000
H 1.240000 -2.147743 0.000000
C 1.390000 -0.000000 7.785714
C 0.695000 1.203775 7.785714
C -0.695000 1.203775 7.785714
C -1.390000 0.000000 7.785714
C -0.695000 -1.203775 7.785714
C 0.695000 -1.203775 7.785714
H 2.480000 -0.000000 7.785714
H 1.240000 2.147743 7.785714
H -1.240000 2.147743 7.785714
H -2.480000 0.000000 7.785714
H -1.240000 -2.147743 7.785714
H 1.240000 -2.147743 7.785714
24
Benzene dimer with center-to-center distance = 8.00 Angstrom
C 1.390000 -0.000000 0.000000
C 0.695000 1.203775 0.000000
C -0.695000 1.203775 0.000000
C -1.390000 0.000000 0.000000
C -0.695000 -1.203775 0.000000
C 0.695000 -1.203775 0.000000
H 2.480000 -0.000000 0.000000
H 1.240000 2.147743 0.000000
H -1.240000 2.147743 0.000000
H -2.480000 0.000000 0.000000
H -1.240000 -2.147743 0.000000
H 1.240000 -2.147743 0.000000
C 1.390000 -0.000000 8.000000
C 0.695000 1.203775 8.000000
C -0.695000 1.203775 8.000000
C -1.390000 0.000000 8.000000
C -0.695000 -1.203775 8.000000
C 0.695000 -1.203775 8.000000
H 2.480000 -0.000000 8.000000
H 1.240000 2.147743 8.000000
H -1.240000 2.147743 8.000000
H -2.480000 0.000000 8.000000
H -1.240000 -2.147743 8.000000
H 1.240000 -2.147743 8.000000
24
Benzene dimer with center-to-center distance = 8.21 Angstrom
C 1.390000 -0.000000 0.000000
C 0.695000 1.203775 0.000000
C -0.695000 1.203775 0.000000
C -1.390000 0.000000 0.000000
C -0.695000 -1.203775 0.000000
C 0.695000 -1.203775 0.000000
H 2.480000 -0.000000 0.000000
H 1.240000 2.147743 0.000000
H -1.240000 2.147743 0.000000
H -2.480000 0.000000 0.000000
H -1.240000 -2.147743 0.000000
H 1.240000 -2.147743 0.000000
C 1.390000 -0.000000 8.214286
C 0.695000 1.203775 8.214286
C -0.695000 1.203775 8.214286
C -1.390000 0.000000 8.214286
C -0.695000 -1.203775 8.214286
C 0.695000 -1.203775 8.214286
H 2.480000 -0.000000 8.214286
H 1.240000 2.147743 8.214286
H -1.240000 2.147743 8.214286
H -2.480000 0.000000 8.214286
H -1.240000 -2.147743 8.214286
H 1.240000 -2.147743 8.214286
24
Benzene dimer with center-to-center distance = 8.43 Angstrom
C 1.390000 -0.000000 0.000000
C 0.695000 1.203775 0.000000
C -0.695000 1.203775 0.000000
C -1.390000 0.000000 0.000000
C -0.695000 -1.203775 0.000000
C 0.695000 -1.203775 0.000000
H 2.480000 -0.000000 0.000000
H 1.240000 2.147743 0.000000
H -1.240000 2.147743 0.000000
H -2.480000 0.000000 0.000000
H -1.240000 -2.147743 0.000000
H 1.240000 -2.147743 0.000000
C 1.390000 -0.000000 8.428571
C 0.695000 1.203775 8.428571
C -0.695000 1.203775 8.428571
C -1.390000 0.000000 8.428571
C -0.695000 -1.203775 8.428571
C 0.695000 -1.203775 8.428571
H 2.480000 -0.000000 8.428571
H 1.240000 2.147743 8.428571
H -1.240000 2.147743 8.428571
H -2.480000 0.000000 8.428571
H -1.240000 -2.147743 8.428571
H 1.240000 -2.147743 8.428571
24
Benzene dimer with center-to-center distance = 8.64 Angstrom
C 1.390000 -0.000000 0.000000
C 0.695000 1.203775 0.000000
C -0.695000 1.203775 0.000000
C -1.390000 0.000000 0.000000
C -0.695000 -1.203775 0.000000
C 0.695000 -1.203775 0.000000
H 2.480000 -0.000000 0.000000
H 1.240000 2.147743 0.000000
H -1.240000 2.147743 0.000000
H -2.480000 0.000000 0.000000
H -1.240000 -2.147743 0.000000
H 1.240000 -2.147743 0.000000
C 1.390000 -0.000000 8.642857
C 0.695000 1.203775 8.642857
C -0.695000 1.203775 8.642857
C -1.390000 0.000000 8.642857
C -0.695000 -1.203775 8.642857
C 0.695000 -1.203775 8.642857
H 2.480000 -0.000000 8.642857
H 1.240000 2.147743 8.642857
H -1.240000 2.147743 8.642857
H -2.480000 0.000000 8.642857
H -1.240000 -2.147743 8.642857
H 1.240000 -2.147743 8.642857
24
Benzene dimer with center-to-center distance = 8.86 Angstrom
C 1.390000 -0.000000 0.000000
C 0.695000 1.203775 0.000000
C -0.695000 1.203775 0.000000
C -1.390000 0.000000 0.000000
C -0.695000 -1.203775 0.000000
C 0.695000 -1.203775 0.000000
H 2.480000 -0.000000 0.000000
H 1.240000 2.147743 0.000000
H -1.240000 2.147743 0.000000
H -2.480000 0.000000 0.000000
H -1.240000 -2.147743 0.000000
H 1.240000 -2.147743 0.000000
C 1.390000 -0.000000 8.857143
C 0.695000 1.203775 8.857143
C -0.695000 1.203775 8.857143
C -1.390000 0.000000 8.857143
C -0.695000 -1.203775 8.857143
C 0.695000 -1.203775 8.857143
H 2.480000 -0.000000 8.857143
H 1.240000 2.147743 8.857143
H -1.240000 2.147743 8.857143
H -2.480000 0.000000 8.857143
H -1.240000 -2.147743 8.857143
H 1.240000 -2.147743 8.857143
24
Benzene dimer with center-to-center distance = 9.07 Angstrom
C 1.390000 -0.000000 0.000000
C 0.695000 1.203775 0.000000
C -0.695000 1.203775 0.000000
C -1.390000 0.000000 0.000000
C -0.695000 -1.203775 0.000000
C 0.695000 -1.203775 0.000000
H 2.480000 -0.000000 0.000000
H 1.240000 2.147743 0.000000
H -1.240000 2.147743 0.000000
H -2.480000 0.000000 0.000000
H -1.240000 -2.147743 0.000000
H 1.240000 -2.147743 0.000000
C 1.390000 -0.000000 9.071429
C 0.695000 1.203775 9.071429
C -0.695000 1.203775 9.071429
C -1.390000 0.000000 9.071429
C -0.695000 -1.203775 9.071429
C 0.695000 -1.203775 9.071429
H 2.480000 -0.000000 9.071429
H 1.240000 2.147743 9.071429
H -1.240000 2.147743 9.071429
H -2.480000 0.000000 9.071429
H -1.240000 -2.147743 9.071429
H 1.240000 -2.147743 9.071429
24
Benzene dimer with center-to-center distance = 9.29 Angstrom
C 1.390000 -0.000000 0.000000
C 0.695000 1.203775 0.000000
C -0.695000 1.203775 0.000000
C -1.390000 0.000000 0.000000
C -0.695000 -1.203775 0.000000
C 0.695000 -1.203775 0.000000
H 2.480000 -0.000000 0.000000
H 1.240000 2.147743 0.000000
H -1.240000 2.147743 0.000000
H -2.480000 0.000000 0.000000
H -1.240000 -2.147743 0.000000
H 1.240000 -2.147743 0.000000
C 1.390000 -0.000000 9.285714
C 0.695000 1.203775 9.285714
C -0.695000 1.203775 9.285714
C -1.390000 0.000000 9.285714
C -0.695000 -1.203775 9.285714
C 0.695000 -1.203775 9.285714
H 2.480000 -0.000000 9.285714
H 1.240000 2.147743 9.285714
H -1.240000 2.147743 9.285714
H -2.480000 0.000000 9.285714
H -1.240000 -2.147743 9.285714
H 1.240000 -2.147743 9.285714
24
Benzene dimer with center-to-center distance = 9.50 Angstrom
C 1.390000 -0.000000 0.000000
C 0.695000 1.203775 0.000000
C -0.695000 1.203775 0.000000
C -1.390000 0.000000 0.000000
C -0.695000 -1.203775 0.000000
C 0.695000 -1.203775 0.000000
H 2.480000 -0.000000 0.000000
H 1.240000 2.147743 0.000000
H -1.240000 2.147743 0.000000
H -2.480000 0.000000 0.000000
H -1.240000 -2.147743 0.000000
H 1.240000 -2.147743 0.000000
C 1.390000 -0.000000 9.500000
C 0.695000 1.203775 9.500000
C -0.695000 1.203775 9.500000
C -1.390000 0.000000 9.500000
C -0.695000 -1.203775 9.500000
C 0.695000 -1.203775 9.500000
H 2.480000 -0.000000 9.500000
H 1.240000 2.147743 9.500000
H -1.240000 2.147743 9.500000
H -2.480000 0.000000 9.500000
H -1.240000 -2.147743 9.500000
H 1.240000 -2.147743 9.500000
24
Benzene dimer with center-to-center distance = 9.71 Angstrom
C 1.390000 -0.000000 0.000000
C 0.695000 1.203775 0.000000
C -0.695000 1.203775 0.000000
C -1.390000 0.000000 0.000000
C -0.695000 -1.203775 0.000000
C 0.695000 -1.203775 0.000000
H 2.480000 -0.000000 0.000000
H 1.240000 2.147743 0.000000
H -1.240000 2.147743 0.000000
H -2.480000 0.000000 0.000000
H -1.240000 -2.147743 0.000000
H 1.240000 -2.147743 0.000000
C 1.390000 -0.000000 9.714286
C 0.695000 1.203775 9.714286
C -0.695000 1.203775 9.714286
C -1.390000 0.000000 9.714286
C -0.695000 -1.203775 9.714286
C 0.695000 -1.203775 9.714286
H 2.480000 -0.000000 9.714286
H 1.240000 2.147743 9.714286
H -1.240000 2.147743 9.714286
H -2.480000 0.000000 9.714286
H -1.240000 -2.147743 9.714286
H 1.240000 -2.147743 9.714286
24
Benzene dimer with center-to-center distance = 9.93 Angstrom
C 1.390000 -0.000000 0.000000
C 0.695000 1.203775 0.000000
C -0.695000 1.203775 0.000000
C -1.390000 0.000000 0.000000
C -0.695000 -1.203775 0.000000
C 0.695000 -1.203775 0.000000
H 2.480000 -0.000000 0.000000
H 1.240000 2.147743 0.000000
H -1.240000 2.147743 0.000000
H -2.480000 0.000000 0.000000
H -1.240000 -2.147743 0.000000
H 1.240000 -2.147743 0.000000
C 1.390000 -0.000000 9.928571
C 0.695000 1.203775 9.928571
C -0.695000 1.203775 9.928571
C -1.390000 0.000000 9.928571
C -0.695000 -1.203775 9.928571
C 0.695000 -1.203775 9.928571
H 2.480000 -0.000000 9.928571
H 1.240000 2.147743 9.928571
H -1.240000 2.147743 9.928571
H -2.480000 0.000000 9.928571
H -1.240000 -2.147743 9.928571
H 1.240000 -2.147743 9.928571
24
Benzene dimer with center-to-center distance = 10.14 Angstrom
C 1.390000 -0.000000 0.000000
C 0.695000 1.203775 0.000000
C -0.695000 1.203775 0.000000
C -1.390000 0.000000 0.000000
C -0.695000 -1.203775 0.000000
C 0.695000 -1.203775 0.000000
H 2.480000 -0.000000 0.000000
H 1.240000 2.147743 0.000000
H -1.240000 2.147743 0.000000
H -2.480000 0.000000 0.000000
H -1.240000 -2.147743 0.000000
H 1.240000 -2.147743 0.000000
C 1.390000 -0.000000 10.142857
C 0.695000 1.203775 10.142857
C -0.695000 1.203775 10.142857
C -1.390000 0.000000 10.142857
C -0.695000 -1.203775 10.142857
C 0.695000 -1.203775 10.142857
H 2.480000 -0.000000 10.142857
H 1.240000 2.147743 10.142857
H -1.240000 2.147743 10.142857
H -2.480000 0.000000 10.142857
H -1.240000 -2.147743 10.142857
H 1.240000 -2.147743 10.142857
24
Benzene dimer with center-to-center distance = 10.36 Angstrom
C 1.390000 -0.000000 0.000000
C 0.695000 1.203775 0.000000
C -0.695000 1.203775 0.000000
C -1.390000 0.000000 0.000000
C -0.695000 -1.203775 0.000000
C 0.695000 -1.203775 0.000000
H 2.480000 -0.000000 0.000000
H 1.240000 2.147743 0.000000
H -1.240000 2.147743 0.000000
H -2.480000 0.000000 0.000000
H -1.240000 -2.147743 0.000000
H 1.240000 -2.147743 0.000000
C 1.390000 -0.000000 10.357143
C 0.695000 1.203775 10.357143
C -0.695000 1.203775 10.357143
C -1.390000 0.000000 10.357143
C -0.695000 -1.203775 10.357143
C 0.695000 -1.203775 10.357143
H 2.480000 -0.000000 10.357143
H 1.240000 2.147743 10.357143
H -1.240000 2.147743 10.357143
H -2.480000 0.000000 10.357143
H -1.240000 -2.147743 10.357143
H 1.240000 -2.147743 10.357143
24
Benzene dimer with center-to-center distance = 10.57 Angstrom
C 1.390000 -0.000000 0.000000
C 0.695000 1.203775 0.000000
C -0.695000 1.203775 0.000000
C -1.390000 0.000000 0.000000
C -0.695000 -1.203775 0.000000
C 0.695000 -1.203775 0.000000
H 2.480000 -0.000000 0.000000
H 1.240000 2.147743 0.000000
H -1.240000 2.147743 0.000000
H -2.480000 0.000000 0.000000
H -1.240000 -2.147743 0.000000
H 1.240000 -2.147743 0.000000
C 1.390000 -0.000000 10.571429
C 0.695000 1.203775 10.571429
C -0.695000 1.203775 10.571429
C -1.390000 0.000000 10.571429
C -0.695000 -1.203775 10.571429
C 0.695000 -1.203775 10.571429
H 2.480000 -0.000000 10.571429
H 1.240000 2.147743 10.571429
H -1.240000 2.147743 10.571429
H -2.480000 0.000000 10.571429
H -1.240000 -2.147743 10.571429
H 1.240000 -2.147743 10.571429
24
Benzene dimer with center-to-center distance = 10.79 Angstrom
C 1.390000 -0.000000 0.000000
C 0.695000 1.203775 0.000000
C -0.695000 1.203775 0.000000
C -1.390000 0.000000 0.000000
C -0.695000 -1.203775 0.000000
C 0.695000 -1.203775 0.000000
H 2.480000 -0.000000 0.000000
H 1.240000 2.147743 0.000000
H -1.240000 2.147743 0.000000
H -2.480000 0.000000 0.000000
H -1.240000 -2.147743 0.000000
H 1.240000 -2.147743 0.000000
C 1.390000 -0.000000 10.785714
C 0.695000 1.203775 10.785714
C -0.695000 1.203775 10.785714
C -1.390000 0.000000 10.785714
C -0.695000 -1.203775 10.785714
C 0.695000 -1.203775 10.785714
H 2.480000 -0.000000 10.785714
H 1.240000 2.147743 10.785714
H -1.240000 2.147743 10.785714
H -2.480000 0.000000 10.785714
H -1.240000 -2.147743 10.785714
H 1.240000 -2.147743 10.785714
24
Benzene dimer with center-to-center distance = 11.00 Angstrom
C 1.390000 -0.000000 0.000000
C 0.695000 1.203775 0.000000
C -0.695000 1.203775 0.000000
C -1.390000 0.000000 0.000000
C -0.695000 -1.203775 0.000000
C 0.695000 -1.203775 0.000000
H 2.480000 -0.000000 0.000000
H 1.240000 2.147743 0.000000
H -1.240000 2.147743 0.000000
H -2.480000 0.000000 0.000000
H -1.240000 -2.147743 0.000000
H 1.240000 -2.147743 0.000000
C 1.390000 -0.000000 11.000000
C 0.695000 1.203775 11.000000
C -0.695000 1.203775 11.000000
C -1.390000 0.000000 11.000000
C -0.695000 -1.203775 11.000000
C 0.695000 -1.203775 11.000000
H 2.480000 -0.000000 11.000000
H 1.240000 2.147743 11.000000
H -1.240000 2.147743 11.000000
H -2.480000 0.000000 11.000000
H -1.240000 -2.147743 11.000000
H 1.240000 -2.147743 11.000000
24
Benzene dimer with center-to-center distance = 11.21 Angstrom
C 1.390000 -0.000000 0.000000
C 0.695000 1.203775 0.000000
C -0.695000 1.203775 0.000000
C -1.390000 0.000000 0.000000
C -0.695000 -1.203775 0.000000
C 0.695000 -1.203775 0.000000
H 2.480000 -0.000000 0.000000
H 1.240000 2.147743 0.000000
H -1.240000 2.147743 0.000000
H -2.480000 0.000000 0.000000
H -1.240000 -2.147743 0.000000
H 1.240000 -2.147743 0.000000
C 1.390000 -0.000000 11.214286
C 0.695000 1.203775 11.214286
C -0.695000 1.203775 11.214286
C -1.390000 0.000000 11.214286
C -0.695000 -1.203775 11.214286
C 0.695000 -1.203775 11.214286
H 2.480000 -0.000000 11.214286
H 1.240000 2.147743 11.214286
H -1.240000 2.147743 11.214286
H -2.480000 0.000000 11.214286
H -1.240000 -2.147743 11.214286
H 1.240000 -2.147743 11.214286
24
Benzene dimer with center-to-center distance = 11.43 Angstrom
C 1.390000 -0.000000 0.000000
C 0.695000 1.203775 0.000000
C -0.695000 1.203775 0.000000
C -1.390000 0.000000 0.000000
C -0.695000 -1.203775 0.000000
C 0.695000 -1.203775 0.000000
H 2.480000 -0.000000 0.000000
H 1.240000 2.147743 0.000000
H -1.240000 2.147743 0.000000
H -2.480000 0.000000 0.000000
H -1.240000 -2.147743 0.000000
H 1.240000 -2.147743 0.000000
C 1.390000 -0.000000 11.428571
C 0.695000 1.203775 11.428571
C -0.695000 1.203775 11.428571
C -1.390000 0.000000 11.428571
C -0.695000 -1.203775 11.428571
C 0.695000 -1.203775 11.428571
H 2.480000 -0.000000 11.428571
H 1.240000 2.147743 11.428571
H -1.240000 2.147743 11.428571
H -2.480000 0.000000 11.428571
H -1.240000 -2.147743 11.428571
H 1.240000 -2.147743 11.428571
24
Benzene dimer with center-to-center distance = 11.64 Angstrom
C 1.390000 -0.000000 0.000000
C 0.695000 1.203775 0.000000
C -0.695000 1.203775 0.000000
C -1.390000 0.000000 0.000000
C -0.695000 -1.203775 0.000000
C 0.695000 -1.203775 0.000000
H 2.480000 -0.000000 0.000000
H 1.240000 2.147743 0.000000
H -1.240000 2.147743 0.000000
H -2.480000 0.000000 0.000000
H -1.240000 -2.147743 0.000000
H 1.240000 -2.147743 0.000000
C 1.390000 -0.000000 11.642857
C 0.695000 1.203775 11.642857
C -0.695000 1.203775 11.642857
C -1.390000 0.000000 11.642857
C -0.695000 -1.203775 11.642857
C 0.695000 -1.203775 11.642857
H 2.480000 -0.000000 11.642857
H 1.240000 2.147743 11.642857
H -1.240000 2.147743 11.642857
H -2.480000 0.000000 11.642857
H -1.240000 -2.147743 11.642857
H 1.240000 -2.147743 11.642857
24
Benzene dimer with center-to-center distance = 11.86 Angstrom
C 1.390000 -0.000000 0.000000
C 0.695000 1.203775 0.000000
C -0.695000 1.203775 0.000000
C -1.390000 0.000000 0.000000
C -0.695000 -1.203775 0.000000
C 0.695000 -1.203775 0.000000
H 2.480000 -0.000000 0.000000
H 1.240000 2.147743 0.000000
H -1.240000 2.147743 0.000000
H -2.480000 0.000000 0.000000
H -1.240000 -2.147743 0.000000
H 1.240000 -2.147743 0.000000
C 1.390000 -0.000000 11.857143
C 0.695000 1.203775 11.857143
C -0.695000 1.203775 11.857143
C -1.390000 0.000000 11.857143
C -0.695000 -1.203775 11.857143
C 0.695000 -1.203775 11.857143
H 2.480000 -0.000000 11.857143
H 1.240000 2.147743 11.857143
H -1.240000 2.147743 11.857143
H -2.480000 0.000000 11.857143
H -1.240000 -2.147743 11.857143
H 1.240000 -2.147743 11.857143
24
Benzene dimer with center-to-center distance = 12.07 Angstrom
C 1.390000 -0.000000 0.000000
C 0.695000 1.203775 0.000000
C -0.695000 1.203775 0.000000
C -1.390000 0.000000 0.000000
C -0.695000 -1.203775 0.000000
C 0.695000 -1.203775 0.000000
H 2.480000 -0.000000 0.000000
H 1.240000 2.147743 0.000000
H -1.240000 2.147743 0.000000
H -2.480000 0.000000 0.000000
H -1.240000 -2.147743 0.000000
H 1.240000 -2.147743 0.000000
C 1.390000 -0.000000 12.071429
C 0.695000 1.203775 12.071429
C -0.695000 1.203775 12.071429
C -1.390000 0.000000 12.071429
C -0.695000 -1.203775 12.071429
C 0.695000 -1.203775 12.071429
H 2.480000 -0.000000 12.071429
H 1.240000 2.147743 12.071429
H -1.240000 2.147743 12.071429
H -2.480000 0.000000 12.071429
H -1.240000 -2.147743 12.071429
H 1.240000 -2.147743 12.071429
24
Benzene dimer with center-to-center distance = 12.29 Angstrom
C 1.390000 -0.000000 0.000000
C 0.695000 1.203775 0.000000
C -0.695000 1.203775 0.000000
C -1.390000 0.000000 0.000000
C -0.695000 -1.203775 0.000000
C 0.695000 -1.203775 0.000000
H 2.480000 -0.000000 0.000000
H 1.240000 2.147743 0.000000
H -1.240000 2.147743 0.000000
H -2.480000 0.000000 0.000000
H -1.240000 -2.147743 0.000000
H 1.240000 -2.147743 0.000000
C 1.390000 -0.000000 12.285714
C 0.695000 1.203775 12.285714
C -0.695000 1.203775 12.285714
C -1.390000 0.000000 12.285714
C -0.695000 -1.203775 12.285714
C 0.695000 -1.203775 12.285714
H 2.480000 -0.000000 12.285714
H 1.240000 2.147743 12.285714
H -1.240000 2.147743 12.285714
H -2.480000 0.000000 12.285714
H -1.240000 -2.147743 12.285714
H 1.240000 -2.147743 12.285714
24
Benzene dimer with center-to-center distance = 12.50 Angstrom
C 1.390000 -0.000000 0.000000
C 0.695000 1.203775 0.000000
C -0.695000 1.203775 0.000000
C -1.390000 0.000000 0.000000
C -0.695000 -1.203775 0.000000
C 0.695000 -1.203775 0.000000
H 2.480000 -0.000000 0.000000
H 1.240000 2.147743 0.000000
H -1.240000 2.147743 0.000000
H -2.480000 0.000000 0.000000
H -1.240000 -2.147743 0.000000
H 1.240000 -2.147743 0.000000
C 1.390000 -0.000000 12.500000
C 0.695000 1.203775 12.500000
C -0.695000 1.203775 12.500000
C -1.390000 0.000000 12.500000
C -0.695000 -1.203775 12.500000
C 0.695000 -1.203775 12.500000
H 2.480000 -0.000000 12.500000
H 1.240000 2.147743 12.500000
H -1.240000 2.147743 12.500000
H -2.480000 0.000000 12.500000
H -1.240000 -2.147743 12.500000
H 1.240000 -2.147743 12.500000
24
Benzene dimer with center-to-center distance = 12.71 Angstrom
C 1.390000 -0.000000 0.000000
C 0.695000 1.203775 0.000000
C -0.695000 1.203775 0.000000
C -1.390000 0.000000 0.000000
C -0.695000 -1.203775 0.000000
C 0.695000 -1.203775 0.000000
H 2.480000 -0.000000 0.000000
H 1.240000 2.147743 0.000000
H -1.240000 2.147743 0.000000
H -2.480000 0.000000 0.000000
H -1.240000 -2.147743 0.000000
H 1.240000 -2.147743 0.000000
C 1.390000 -0.000000 12.714286
C 0.695000 1.203775 12.714286
C -0.695000 1.203775 12.714286
C -1.390000 0.000000 12.714286
C -0.695000 -1.203775 12.714286
C 0.695000 -1.203775 12.714286
H 2.480000 -0.000000 12.714286
H 1.240000 2.147743 12.714286
H -1.240000 2.147743 12.714286
H -2.480000 0.000000 12.714286
H -1.240000 -2.147743 12.714286
H 1.240000 -2.147743 12.714286
24
Benzene dimer with center-to-center distance = 12.93 Angstrom
C 1.390000 -0.000000 0.000000
C 0.695000 1.203775 0.000000
C -0.695000 1.203775 0.000000
C -1.390000 0.000000 0.000000
C -0.695000 -1.203775 0.000000
C 0.695000 -1.203775 0.000000
H 2.480000 -0.000000 0.000000
H 1.240000 2.147743 0.000000
H -1.240000 2.147743 0.000000
H -2.480000 0.000000 0.000000
H -1.240000 -2.147743 0.000000
H 1.240000 -2.147743 0.000000
C 1.390000 -0.000000 12.928571
C 0.695000 1.203775 12.928571
C -0.695000 1.203775 12.928571
C -1.390000 0.000000 12.928571
C -0.695000 -1.203775 12.928571
C 0.695000 -1.203775 12.928571
H 2.480000 -0.000000 12.928571
H 1.240000 2.147743 12.928571
H -1.240000 2.147743 12.928571
H -2.480000 0.000000 12.928571
H -1.240000 -2.147743 12.928571
H 1.240000 -2.147743 12.928571
24
Benzene dimer with center-to-center distance = 13.14 Angstrom
C 1.390000 -0.000000 0.000000
C 0.695000 1.203775 0.000000
C -0.695000 1.203775 0.000000
C -1.390000 0.000000 0.000000
C -0.695000 -1.203775 0.000000
C 0.695000 -1.203775 0.000000
H 2.480000 -0.000000 0.000000
H 1.240000 2.147743 0.000000
H -1.240000 2.147743 0.000000
H -2.480000 0.000000 0.000000
H -1.240000 -2.147743 0.000000
H 1.240000 -2.147743 0.000000
C 1.390000 -0.000000 13.142857
C 0.695000 1.203775 13.142857
C -0.695000 1.203775 13.142857
C -1.390000 0.000000 13.142857
C -0.695000 -1.203775 13.142857
C 0.695000 -1.203775 13.142857
H 2.480000 -0.000000 13.142857
H 1.240000 2.147743 13.142857
H -1.240000 2.147743 13.142857
H -2.480000 0.000000 13.142857
H -1.240000 -2.147743 13.142857
H 1.240000 -2.147743 13.142857
24
Benzene dimer with center-to-center distance = 13.36 Angstrom
C 1.390000 -0.000000 0.000000
C 0.695000 1.203775 0.000000
C -0.695000 1.203775 0.000000
C -1.390000 0.000000 0.000000
C -0.695000 -1.203775 0.000000
C 0.695000 -1.203775 0.000000
H 2.480000 -0.000000 0.000000
H 1.240000 2.147743 0.000000
H -1.240000 2.147743 0.000000
H -2.480000 0.000000 0.000000
H -1.240000 -2.147743 0.000000
H 1.240000 -2.147743 0.000000
C 1.390000 -0.000000 13.357143
C 0.695000 1.203775 13.357143
C -0.695000 1.203775 13.357143
C -1.390000 0.000000 13.357143
C -0.695000 -1.203775 13.357143
C 0.695000 -1.203775 13.357143
H 2.480000 -0.000000 13.357143
H 1.240000 2.147743 13.357143
H -1.240000 2.147743 13.357143
H -2.480000 0.000000 13.357143
H -1.240000 -2.147743 13.357143
H 1.240000 -2.147743 13.357143
24
Benzene dimer with center-to-center distance = 13.57 Angstrom
C 1.390000 -0.000000 0.000000
C 0.695000 1.203775 0.000000
C -0.695000 1.203775 0.000000
C -1.390000 0.000000 0.000000
C -0.695000 -1.203775 0.000000
C 0.695000 -1.203775 0.000000
H 2.480000 -0.000000 0.000000
H 1.240000 2.147743 0.000000
H -1.240000 2.147743 0.000000
H -2.480000 0.000000 0.000000
H -1.240000 -2.147743 0.000000
H 1.240000 -2.147743 0.000000
C 1.390000 -0.000000 13.571429
C 0.695000 1.203775 13.571429
C -0.695000 1.203775 13.571429
C -1.390000 0.000000 13.571429
C -0.695000 -1.203775 13.571429
C 0.695000 -1.203775 13.571429
H 2.480000 -0.000000 13.571429
H 1.240000 2.147743 13.571429
H -1.240000 2.147743 13.571429
H -2.480000 0.000000 13.571429
H -1.240000 -2.147743 13.571429
H 1.240000 -2.147743 13.571429
24
Benzene dimer with center-to-center distance = 13.79 Angstrom
C 1.390000 -0.000000 0.000000
C 0.695000 1.203775 0.000000
C -0.695000 1.203775 0.000000
C -1.390000 0.000000 0.000000
C -0.695000 -1.203775 0.000000
C 0.695000 -1.203775 0.000000
H 2.480000 -0.000000 0.000000
H 1.240000 2.147743 0.000000
H -1.240000 2.147743 0.000000
H -2.480000 0.000000 0.000000
H -1.240000 -2.147743 0.000000
H 1.240000 -2.147743 0.000000
C 1.390000 -0.000000 13.785714
C 0.695000 1.203775 13.785714
C -0.695000 1.203775 13.785714
C -1.390000 0.000000 13.785714
C -0.695000 -1.203775 13.785714
C 0.695000 -1.203775 13.785714
H 2.480000 -0.000000 13.785714
H 1.240000 2.147743 13.785714
H -1.240000 2.147743 13.785714
H -2.480000 0.000000 13.785714
H -1.240000 -2.147743 13.785714
H 1.240000 -2.147743 13.785714
24
Benzene dimer with center-to-center distance = 14.00 Angstrom
C 1.390000 -0.000000 0.000000
C 0.695000 1.203775 0.000000
C -0.695000 1.203775 0.000000
C -1.390000 0.000000 0.000000
C -0.695000 -1.203775 0.000000
C 0.695000 -1.203775 0.000000
H 2.480000 -0.000000 0.000000
H 1.240000 2.147743 0.000000
H -1.240000 2.147743 0.000000
H -2.480000 0.000000 0.000000
H -1.240000 -2.147743 0.000000
H 1.240000 -2.147743 0.000000
C 1.390000 -0.000000 14.000000
C 0.695000 1.203775 14.000000
C -0.695000 1.203775 14.000000
C -1.390000 0.000000 14.000000
C -0.695000 -1.203775 14.000000
C 0.695000 -1.203775 14.000000
H 2.480000 -0.000000 14.000000
H 1.240000 2.147743 14.000000
H -1.240000 2.147743 14.000000
H -2.480000 0.000000 14.000000
H -1.240000 -2.147743 14.000000
H 1.240000 -2.147743 14.000000
