memory 4 GB
molecule mol {
0 1
6       -1.0617092040   1.2971405720    0.2920600030
8       -0.3581611160   2.2704586130    0.5318126680
8       -0.5893035160   0.0949177580    0.0037888130
6       -2.5584277980   1.3425498230    0.2962573200
1       0.4044356590    0.1277226210    0.0184118380
1       -2.8959979780   2.3474640020    0.5183163400
1       -2.9328892780   1.0223904510    -0.6729955510
1       -2.9372119600   0.6449104330    1.0395570840
}

set {
basis jun-cc-pvdz
freeze_core true
guess sad
scf_type df
}

set dft_dispersion_parameters [0.44959224, 3.35743605, 16.0, 1.0, 1.61679827, 0.0]
energy('hf-d4', save_pairwise_disp=True)
print_variables()
